0.9790000000	android malware
0.9690000000	bin packing
0.9380000000	fake news
0.9360000000	license plate
0.8970000000	nystr om
0.8780000000	hand gesture
0.8700000000	dueling bandits
0.8700000000	noun modifier
0.8700000000	vertex nomination
0.8690000000	disjunctive datalog
0.8690000000	rain streaks
0.8690000000	snomed ct
0.8670000000	avian influenza
0.8670000000	false alarm
0.8660000000	lung nodules
0.8650000000	loop closure
0.8630000000	concentration inequalities
0.8630000000	abc logitboost
0.8630000000	spiking neurons
0.8620000000	radial distortion
0.8620000000	sg mcmc
0.8620000000	td lambda
0.8620000000	skin lesion
0.8610000000	heat exchanger
0.8610000000	haar wavelet
0.8610000000	grad cam
0.8600000000	histogram equalization
0.8600000000	gauss southwell
0.8590000000	noun phrases
0.8580000000	mathrm poly
0.8570000000	land cover
0.8570000000	pan sharpening
0.8560000000	rolling shutter
0.8560000000	penn treebank
0.8560000000	soil moisture
0.8550000000	password authentication
0.8540000000	customer churn
0.8530000000	lingua franca
0.8530000000	sina weibo
0.8530000000	saacm es
0.8530000000	dempster shafer
0.8530000000	fitness landscapes
0.8530000000	travelling salesman
0.8510000000	supply chain
0.8510000000	cold start
0.8500000000	rightarrow mathbb
0.8500000000	quasi newton
0.8500000000	persistence diagrams
0.8500000000	handwritten digit
0.8470000000	multilayer perceptrons
0.8470000000	stock prices
0.8470000000	contrastive divergence
0.8460000000	pos tagging
0.8460000000	lidc idri
0.8460000000	lung nodule
0.8450000000	axial lines
0.8440000000	electronic health records
0.8440000000	frank wolfe
0.8430000000	ant colony
0.8430000000	particle swarm
0.8430000000	kullback leibler
0.8420000000	modal logics
0.8400000000	spike timing dependent plasticity
0.8400000000	synthetic aperture radar
0.8400000000	mel frequency cepstral
0.8400000000	positron emission tomography
0.8390000000	keyphrase extraction
0.8380000000	finger vein
0.8380000000	open ended
0.8380000000	protein ligand
0.8380000000	retinal vessel
0.8370000000	synthetic aperture radar sar
0.8370000000	radon barcodes
0.8370000000	compares favorably
0.8360000000	trade offs
0.8350000000	handwritten bangla
0.8340000000	cma es
0.8340000000	cryo em
0.8340000000	icu mortality
0.8330000000	optical coherence tomography
0.8330000000	magnetic resonance
0.8330000000	petri nets
0.8330000000	pectoral muscle
0.8330000000	vc dimension
0.8330000000	lip reading
0.8320000000	spell checker
0.8320000000	spinal cord
0.8310000000	electricity demand
0.8310000000	differential invariants
0.8310000000	pascal voc
0.8290000000	bacterial foraging
0.8290000000	color constancy
0.8280000000	license plates
0.8270000000	confidence intervals
0.8270000000	capsule endoscopy
0.8270000000	cp nets
0.8260000000	frequent itemsets
0.8260000000	trace norm
0.8260000000	monocular slam
0.8250000000	tree adjoining grammars
0.8250000000	haze removal
0.8250000000	rna seq
0.8250000000	pulmonary embolism
0.8240000000	armed bandit
0.8230000000	nuclear norm
0.8220000000	dirichlet allocation
0.8210000000	https github.com
0.8210000000	precipitation nowcasting
0.8200000000	hl mrfs
0.8200000000	reading comprehension
0.8180000000	wind farm
0.8170000000	gene expression
0.8170000000	endoscopic capsule
0.8160000000	job shop
0.8160000000	poisson factorization
0.8150000000	gauss seidel
0.8150000000	annealing schedule
0.8150000000	wi fi
0.8140000000	magnetic resonance imaging
0.8130000000	low dose ct
0.8130000000	semidefinite programming
0.8110000000	skip thought
0.8100000000	coalition formation
0.8090000000	l1 norm
0.8090000000	indian buffet
0.8080000000	positive definite
0.8070000000	computed tomography
0.8070000000	moment invariants
0.8060000000	experience replay
0.8060000000	authorship attribution
0.8050000000	nonnegative matrix factorization
0.8050000000	dl lite
0.8050000000	normalizing flows
0.8040000000	kt ram
0.8040000000	belief revision
0.8030000000	differential privacy
0.8020000000	expectation maximization
0.8010000000	hyperspectral unmixing
0.8000000000	chinese restaurant
0.8000000000	peer grading
0.8000000000	vast amounts
0.7990000000	credit card
0.7990000000	fault diagnosis
0.7990000000	dawid skene
0.7980000000	dataflow matrix machines
0.7980000000	caenorhabditis elegans
0.7970000000	rain streak
0.7970000000	indic scripts
0.7960000000	f1 score
0.7960000000	prostate cancer
0.7940000000	predator prey
0.7940000000	hash codes
0.7940000000	ell infty
0.7940000000	heart failure
0.7930000000	spelling correction
0.7920000000	cryo electron microscopy
0.7920000000	anti hebbian
0.7920000000	mathcal o
0.7910000000	eye movements
0.7900000000	protein protein interaction
0.7900000000	actual causation
0.7880000000	nearest neighbor
0.7880000000	lung cancer
0.7870000000	symmetric positive definite spd matrices
0.7870000000	actor critic
0.7870000000	proximal newton
0.7860000000	crude oil
0.7860000000	default logic
0.7850000000	contextual bandit
0.7850000000	breast cancer
0.7850000000	photometric stereo
0.7840000000	facial landmark
0.7840000000	lv myocardium
0.7840000000	coreference resolution
0.7830000000	facial action units
0.7830000000	hash tables
0.7830000000	dialogue act
0.7820000000	markov chain monte carlo mcmc
0.7820000000	word sense disambiguation wsd
0.7800000000	chow liu
0.7800000000	fingerprint reader
0.7790000000	reproducing kernel hilbert spaces
0.7790000000	tensor completion
0.7780000000	determinantal point processes dpps
0.7780000000	positive semidefinite
0.7780000000	spin glass
0.7770000000	arc consistency
0.7760000000	lane markings
0.7750000000	local binary pattern
0.7750000000	restricted boltzmann machines
0.7750000000	dice similarity coefficient
0.7750000000	defeasible argumentation
0.7740000000	ucf 101
0.7730000000	atari 2600
0.7730000000	lp relaxation
0.7730000000	spiking neuron
0.7720000000	nonnegative matrix factorization nmf
0.7720000000	electrical impedance
0.7720000000	fabric defect
0.7720000000	dice coefficient
0.7710000000	keyword spotting
0.7710000000	multinomial probit
0.7710000000	receptive fields
0.7710000000	brain tumor
0.7700000000	nuclear norm minimization
0.7700000000	thompson sampling
0.7690000000	nir vis
0.7690000000	prioritized sweeping
0.7690000000	tilde omega
0.7680000000	credit card fraud
0.7680000000	spike timing
0.7680000000	cellular automaton
0.7680000000	differential evolution
0.7680000000	dec pomdps
0.7680000000	personality traits
0.7680000000	associative memories
0.7680000000	receiver operating
0.7680000000	abstractive summarization
0.7670000000	head mounted
0.7670000000	solar radiation
0.7670000000	sliding windows
0.7660000000	latent dirichlet allocation
0.7660000000	hajj and umrah
0.7660000000	granger causality
0.7660000000	morphological analyzer
0.7660000000	mental health
0.7660000000	skin lesions
0.7660000000	microsoft coco
0.7660000000	alpha beta
0.7650000000	nk landscapes
0.7650000000	ssc omp
0.7650000000	gravitational wave
0.7650000000	reject option
0.7650000000	bangla alphabet
0.7650000000	mechanical turk
0.7650000000	auto regressive
0.7640000000	facial landmark localisation
0.7640000000	fault tolerant
0.7640000000	fault tolerance
0.7640000000	pos tagger
0.7640000000	fisher discriminant
0.7640000000	eligibility traces
0.7630000000	keystroke dynamics
0.7630000000	situational awareness
0.7630000000	steepest descent
0.7630000000	gauss newton
0.7630000000	slot filling
0.7630000000	cross modal
0.7620000000	semidefinite relaxation
0.7620000000	thermal infrared
0.7610000000	reproducing kernel hilbert
0.7610000000	answer set programming
0.7610000000	diminishing returns
0.7610000000	rigid body
0.7610000000	extractive summarization
0.7610000000	youtube 8m
0.7610000000	huge amounts
0.7610000000	cutting plane
0.7610000000	white matter
0.7600000000	hamiltonian monte carlo hmc
0.7600000000	pareto fronts
0.7600000000	von mises
0.7600000000	ground truths
0.7600000000	dilated convolutions
0.7600000000	cocktail party
0.7600000000	stable marriage
0.7600000000	synaptic plasticity
0.7600000000	entity linking
0.7590000000	kullback leibler divergence
0.7590000000	description logics dls
0.7590000000	gumbel softmax
0.7590000000	theorem prover
0.7590000000	ideally suited
0.7590000000	electroencephalogram eeg
0.7580000000	cellular automata
0.7580000000	gibbs sampler
0.7580000000	myocardial infarction
0.7580000000	noun phrase
0.7580000000	https youtu.be
0.7580000000	biological ecosystems
0.7580000000	openai gym
0.7580000000	medium sized
0.7580000000	mutually exclusive
0.7580000000	bregman divergence
0.7580000000	constraint satisfaction
0.7580000000	mode collapse
0.7580000000	vapnik chervonenkis
0.7580000000	fused lasso
0.7580000000	warm start
0.7570000000	spike timing dependent plasticity stdp
0.7570000000	unmanned aerial vehicles
0.7570000000	alexa prize
0.7570000000	bike sharing
0.7570000000	hol light
0.7570000000	obstacle avoidance
0.7570000000	bregman divergences
0.7570000000	preference elicitation
0.7560000000	euphonic conjunctions
0.7560000000	spike trains
0.7560000000	labor intensive
0.7560000000	law enforcement
0.7560000000	false negatives
0.7560000000	fat shattering
0.7560000000	laser scanner
0.7560000000	digital ecosystems
0.7560000000	jensen shannon
0.7560000000	kl divergence
0.7560000000	multiarmed bandit
0.7550000000	optical coherence tomography oct
0.7550000000	grammatical error correction
0.7550000000	salt and pepper
0.7550000000	bundle adjustment
0.7550000000	credit assignment
0.7550000000	facial expression
0.7550000000	traveling salesman
0.7550000000	davis putnam
0.7550000000	false alarms
0.7550000000	square root
0.7550000000	bangla keyboard
0.7550000000	team members
0.7540000000	schmidt independence criterion
0.7540000000	generative adversarial nets
0.7540000000	majority vote
0.7540000000	inception v3
0.7540000000	energy disaggregation
0.7540000000	wall clock
0.7540000000	stock market
0.7540000000	pac learnability
0.7540000000	counter intuitive
0.7540000000	microsoft kinect
0.7540000000	collision avoidance
0.7540000000	apache spark
0.7540000000	nash equilibrium
0.7540000000	blood vessels
0.7530000000	adverse drug reactions
0.7530000000	satisfiability modulo theories
0.7530000000	tightly coupled
0.7530000000	inception resnet
0.7530000000	gained popularity
0.7530000000	infinitely divisible
0.7530000000	augmented lagrangian
0.7530000000	brute force
0.7530000000	los angeles
0.7530000000	chi square
0.7530000000	covariate shift
0.7530000000	crowd sourcing
0.7530000000	crowd sourced
0.7530000000	spd matrices
0.7530000000	defensive distillation
0.7530000000	symmetry breaking
0.7530000000	representer theorem
0.7530000000	prohibitively expensive
0.7530000000	majorization minimization
0.7530000000	referring expressions
0.7520000000	proportional conflict redistribution
0.7520000000	casia webface
0.7520000000	electron microscopy
0.7520000000	minimally invasive
0.7520000000	dialog act
0.7520000000	news articles
0.7520000000	aerial imagery
0.7520000000	stick breaking
0.7520000000	fictitious play
0.7520000000	boolean satisfiability
0.7520000000	blind deconvolution
0.7520000000	ms coco
0.7510000000	liver lesions
0.7510000000	leaky relu
0.7510000000	baum welch
0.7510000000	early stopping
0.7510000000	persistent homology
0.7510000000	kernel cco
0.7510000000	cart pole
0.7500000000	unmanned aerial vehicles uavs
0.7500000000	restricted boltzmann machines rbms
0.7500000000	na ive bayes
0.7500000000	np hardness
0.7500000000	viola jones
0.7500000000	broadly applicable
0.7500000000	remotely sensed
0.7500000000	hand crafted
0.7500000000	candecomp parafac
0.7500000000	max sat
0.7500000000	atrial fibrillation
0.7500000000	kolmogorov smirnov
0.7500000000	basal ganglia
0.7500000000	coronary artery
0.7500000000	bi directional
0.7500000000	sliding window
0.7490000000	autism spectrum disorder
0.7490000000	wall street journal
0.7490000000	wireless capsule endoscopy
0.7490000000	amazon mechanical turk
0.7490000000	quorum sensing
0.7490000000	mini batches
0.7490000000	johnson lindenstrauss
0.7490000000	tabula rasa
0.7490000000	max pooling
0.7490000000	san francisco
0.7490000000	multiword expressions
0.7490000000	occupancy grid
0.7490000000	dezert smarandache
0.7490000000	levenberg marquardt
0.7490000000	nurse rostering
0.7490000000	compares favourably
0.7490000000	retinal fundus
0.7490000000	amino acids
0.7480000000	mobile phones
0.7480000000	presidential election
0.7480000000	reversible watermarking
0.7480000000	poorly understood
0.7480000000	ell 0
0.7480000000	kneser ney
0.7480000000	biologically plausible
0.7480000000	delaunay triangulation
0.7480000000	kdd cup
0.7480000000	nash equilibria
0.7480000000	riffled independence
0.7470000000	fokker planck
0.7470000000	fluorescence microscopy
0.7470000000	mumford shah
0.7470000000	display advertising
0.7470000000	von neumann
0.7470000000	metropolis hastings
0.7470000000	cesa bianchi
0.7470000000	vice versa
0.7470000000	weisfeiler lehman
0.7470000000	anisotropic diffusion
0.7470000000	tf idf
0.7470000000	hill climbing
0.7470000000	ornstein uhlenbeck
0.7470000000	handwritten digits
0.7470000000	differentially private
0.7470000000	heavy tailed
0.7470000000	catastrophic forgetting
0.7460000000	covering based rough sets
0.7460000000	ordinary differential equations
0.7460000000	ct scans
0.7460000000	ceteris paribus
0.7460000000	multilayer perceptron
0.7460000000	satellite imagery
0.7460000000	runge kutta
0.7460000000	hypertree width
0.7460000000	pitman yor
0.7460000000	pac bayes
0.7460000000	lagrange multiplier
0.7460000000	fitness landscape
0.7460000000	seborrheic keratosis
0.7460000000	amino acid
0.7460000000	diabetic retinopathy
0.7450000000	sparse subspace clustering ssc
0.7450000000	classical chinese poetry
0.7450000000	faster rcnn
0.7450000000	spherical harmonics
0.7450000000	radiation dose
0.7450000000	infra red
0.7450000000	piece wise
0.7450000000	lagrange multipliers
0.7450000000	absolute deviation
0.7450000000	shortest paths
0.7440000000	electronic health record
0.7440000000	variational autoencoders vaes
0.7440000000	optic disc
0.7440000000	influence diagrams
0.7440000000	hate speech
0.7440000000	biometric authentication
0.7440000000	traveling salesperson
0.7440000000	https goo.gl
0.7440000000	prosodic morphology
0.7440000000	abundance fractions
0.7440000000	coarse graining
0.7440000000	sat solvers
0.7440000000	min max
0.7440000000	reparameterization trick
0.7440000000	mpi sintel
0.7440000000	native speakers
0.7430000000	hamiltonian monte carlo
0.7430000000	upper bound
0.7430000000	submodular maximization
0.7430000000	hedonic games
0.7430000000	gaining popularity
0.7430000000	skip gram
0.7430000000	infinite horizon
0.7430000000	blog posts
0.7430000000	auto encoder
0.7420000000	multi layer perceptron
0.7420000000	grassmann manifold
0.7420000000	nearest neighbour
0.7420000000	polarity lexicons
0.7420000000	ad hoc
0.7420000000	crowd counting
0.7420000000	description logics
0.7420000000	bee colony
0.7410000000	aspect based sentiment analysis
0.7410000000	locality sensitive hashing lsh
0.7410000000	neural machine translation
0.7410000000	url https github.com
0.7410000000	majority voting
0.7410000000	years ago
0.7410000000	background subtraction
0.7410000000	exponential families
0.7410000000	stack overflow
0.7410000000	liveness detection
0.7410000000	false positives
0.7410000000	la langue
0.7410000000	skin cancer
0.7410000000	vr sgd
0.7400000000	mild cognitive impairment mci
0.7400000000	multi armed bandit
0.7400000000	virtual reality
0.7400000000	mini batch
0.7400000000	tsallis entropy
0.7400000000	collapsed gibbs
0.7400000000	gi tract
0.7400000000	compositional distributional
0.7390000000	multiple attractor cellular automata
0.7390000000	positron emission tomography pet
0.7390000000	arabic script
0.7390000000	electricity consumption
0.7390000000	dantzig selector
0.7390000000	theorem proving
0.7390000000	human trafficking
0.7390000000	zeroth order
0.7390000000	cohn kanade
0.7380000000	functional magnetic resonance imaging fmri
0.7380000000	oriented gradients hog
0.7380000000	stable model semantics
0.7380000000	mobile phone
0.7380000000	distant supervision
0.7380000000	health care
0.7380000000	max min
0.7380000000	client server
0.7370000000	partially observable markov decision processes
0.7370000000	eye movement
0.7370000000	cnf formulas
0.7370000000	speed ups
0.7370000000	dot product
0.7370000000	armed bandits
0.7370000000	primal dual
0.7370000000	shortest path
0.7370000000	post hoc
0.7370000000	densely connected
0.7360000000	mises fisher
0.7360000000	inverse reinforcement
0.7360000000	black boxes
0.7360000000	abc mart
0.7360000000	referring expression
0.7360000000	interval valued
0.7350000000	gated recurrent unit gru
0.7350000000	dual coordinate ascent
0.7350000000	electronic medical records
0.7350000000	upper bounds
0.7350000000	dueling bandit
0.7350000000	message passing
0.7350000000	mnist cifar10
0.7350000000	mass spectrometry
0.7350000000	auto encoders
0.7340000000	blind image deblurring
0.7340000000	single valued neutrosophic
0.7340000000	locality sensitive hashing
0.7340000000	markov random field
0.7340000000	chinese characters
0.7340000000	cryo electron
0.7340000000	pareto front
0.7340000000	nose tip
0.7340000000	bounding boxes
0.7330000000	contrastive divergence cd
0.7330000000	web pages
0.7330000000	element wise
0.7330000000	traffic sign
0.7330000000	conditional independences
0.7330000000	white box
0.7330000000	maximum likelihood
0.7320000000	phrase based smt
0.7320000000	influence diagram
0.7320000000	liver tumor
0.7320000000	nearest neighbours
0.7320000000	shortcut connections
0.7320000000	skip connections
0.7320000000	closed loop
0.7320000000	totally corrective
0.7310000000	cancer cell lines
0.7310000000	support vector machine
0.7310000000	empirical risk minimization
0.7310000000	atari games
0.7310000000	newly released
0.7310000000	augmented reality
0.7310000000	fractal dimension
0.7310000000	split merge
0.7310000000	cifar 100
0.7300000000	automatic speech recognition asr
0.7300000000	type logical grammars
0.7300000000	peer to peer
0.7300000000	grassmann manifolds
0.7300000000	figure ground
0.7300000000	widespread adoption
0.7300000000	gray matter
0.7300000000	pascal voc2007
0.7300000000	pos tags
0.7300000000	living organisms
0.7300000000	recent advances
0.7300000000	piecewise constant
0.7290000000	support vector machines
0.7290000000	markov decision processes
0.7290000000	stock price
0.7290000000	homomorphic encryption
0.7290000000	minwise hashing
0.7290000000	graphical lasso
0.7290000000	lattice rescoring
0.7290000000	caltech ucsd
0.7290000000	real estate
0.7290000000	sarsa lambda
0.7290000000	forward backward
0.7280000000	conditional random fields
0.7280000000	morphologically rich languages
0.7280000000	myanmar sentences
0.7280000000	semi supervised
0.7280000000	petri net
0.7280000000	markov blanket
0.7280000000	pos taggers
0.7280000000	propositional satisfiability
0.7280000000	age progression
0.7280000000	decades ago
0.7270000000	long short term memory
0.7270000000	aperture radar sar
0.7270000000	seeded region growing
0.7270000000	neuro fuzzy
0.7270000000	chronic obstructive
0.7270000000	epistemic irrelevance
0.7270000000	indo european
0.7270000000	simulated annealing
0.7260000000	named entity recognition
0.7260000000	the hebrew bible
0.7260000000	chinese word segmentation
0.7260000000	facial action unit
0.7260000000	energy consumption
0.7260000000	intuitionistic fuzzy
0.7260000000	widely accepted
0.7250000000	bounded rationality
0.7250000000	bio inspired
0.7250000000	fine grain
0.7250000000	compressively sensed
0.7250000000	coarse grained
0.7250000000	mirror descent
0.7250000000	truth maintenance
0.7250000000	science fiction
0.7250000000	prox svrg
0.7240000000	magnetic resonance imaging mri
0.7240000000	neural machine translation nmt
0.7240000000	dead ends
0.7240000000	multi label
0.7240000000	autoepistemic logic
0.7240000000	mathbf x
0.7230000000	statistical machine translation smt
0.7230000000	shot multibox detector
0.7230000000	spatial transformer
0.7230000000	cultural heritage
0.7230000000	kalman filter
0.7230000000	daily life
0.7230000000	partially observable
0.7220000000	conditional random field
0.7220000000	inter annotator agreement
0.7220000000	differential equations
0.7220000000	nearest neighbors
0.7220000000	population sizing
0.7220000000	categorial grammars
0.7220000000	ted talks
0.7210000000	long short term memory lstm
0.7210000000	loopy belief propagation
0.7210000000	expectation propagation ep
0.7210000000	background clutter
0.7210000000	high dimensional
0.7210000000	python package
0.7210000000	na ive
0.7200000000	information compression by multiple alignment
0.7200000000	presence absence
0.7200000000	lymph nodes
0.7200000000	numeral recognition
0.7200000000	loop cutset
0.7200000000	whole slide
0.7190000000	inductive logic programming ilp
0.7190000000	naive bayes
0.7190000000	tensor factorization
0.7180000000	ant colony optimization aco
0.7180000000	orthogonal matching pursuit
0.7180000000	convex relaxations
0.7180000000	super resolution
0.7180000000	fine tunes
0.7180000000	computationally demanding
0.7180000000	abstract argumentation
0.7170000000	international planning competition
0.7170000000	bradley terry luce
0.7170000000	decision makers
0.7170000000	wake sleep
0.7170000000	linguistically motivated
0.7160000000	byte pair encoding
0.7160000000	computed tomography ct
0.7150000000	tree adjoining
0.7150000000	stock markets
0.7150000000	defensive forecasting
0.7140000000	late fusion
0.7140000000	semi definite
0.7140000000	signature verification
0.7140000000	protein secondary
0.7140000000	las vegas
0.7130000000	visual question answering vqa
0.7130000000	matrix factorisation
0.7130000000	cataract surgery
0.7130000000	roughly speaking
0.7130000000	cross lingual
0.7120000000	organizing map som
0.7120000000	modal logic
0.7120000000	spherical gaussians
0.7120000000	solar irradiance
0.7110000000	langevin monte
0.7110000000	autonomous vehicles
0.7110000000	compressive sensing
0.7110000000	brazilian portuguese
0.7100000000	roget s thesaurus
0.7100000000	widely believed
0.7100000000	resting state
0.7100000000	named entity
0.7100000000	biologically inspired
0.7100000000	body joints
0.7090000000	alternating direction method of multipliers
0.7090000000	master slave
0.7090000000	mathbb r
0.7080000000	empirical risk minimization erm
0.7080000000	kullback leibler kl
0.7080000000	mini batching
0.7070000000	blind source separation bss
0.7070000000	ant colony optimization
0.7070000000	dirichlet allocation lda
0.7070000000	combinatory categorial
0.7070000000	swarm intelligence
0.7060000000	particle swarm optimization pso
0.7060000000	zipf s law
0.7060000000	fine tune
0.7060000000	remote sensing
0.7060000000	batch normalization
0.7060000000	pulmonary nodules
0.7060000000	resource allocation
0.7060000000	blind deblurring
0.7060000000	split bregman
0.7050000000	visual servoing
0.7050000000	hough transform
0.7050000000	york city
0.7050000000	logic programming
0.7040000000	determinantal point processes
0.7040000000	contextual bandits
0.7040000000	air pollution
0.7030000000	latent dirichlet allocation lda
0.7030000000	max margin
0.7030000000	indoor scenes
0.7030000000	unscented kalman
0.7030000000	hawkes processes
0.7020000000	low dose x ray ct
0.7020000000	monte carlo tree search mcts
0.7020000000	radial basis function rbf
0.7020000000	sequence to sequence
0.7020000000	polarimetric sar
0.7020000000	floating point
0.7020000000	skip connection
0.7020000000	restless bandit
0.7010000000	turing machine
0.7010000000	skeleton joints
0.7010000000	optical flow
0.7010000000	premise selection
0.7000000000	bellman error minimization
0.7000000000	drug drug interactions
0.7000000000	web services
0.7000000000	web page
0.7000000000	autonomous driving
0.7000000000	excess risk
0.7000000000	coronary arteries
0.6990000000	blind source separation
0.6990000000	pointwise mutual information
0.6990000000	infant brain
0.6990000000	record linkage
0.6990000000	carefully crafted
0.6980000000	reproducing kernel hilbert space rkhs
0.6980000000	context free grammars
0.6980000000	eye fixations
0.6980000000	active contour
0.6980000000	chest ct
0.6970000000	spike and slab
0.6970000000	markov chains
0.6970000000	matrix completion
0.6970000000	customer service
0.6960000000	diffusion tensor imaging
0.6960000000	regret bound
0.6960000000	visible light
0.6960000000	nonmonotonic reasoning
0.6960000000	imperceptible perturbations
0.6960000000	feed forward
0.6950000000	electronic health records ehrs
0.6950000000	the lambek grishin calculus
0.6950000000	reservoir computing rc
0.6950000000	markov equivalence
0.6950000000	pac man
0.6950000000	o sqrt
0.6950000000	bounding box
0.6940000000	discrete cosine transform
0.6930000000	nystr o m
0.6930000000	x ray
0.6920000000	connectionist temporal classification ctc
0.6920000000	intensive care unit
0.6920000000	policy gradient
0.6920000000	writer identification
0.6920000000	speaker diarization
0.6920000000	speaker verification
0.6910000000	super resolved
0.6910000000	bilinear pooling
0.6910000000	intrinsically motivated
0.6910000000	impulse noise
0.6900000000	directed acyclic graphs dags
0.6900000000	single cell rna
0.6900000000	receptive field
0.6900000000	iot devices
0.6890000000	b bit minwise hashing
0.6890000000	bethe free energy
0.6890000000	collapsed variational
0.6890000000	adversarial perturbations
0.6890000000	cifar 10
0.6880000000	wasserstein gans
0.6880000000	inverted pendulum
0.6880000000	intel xeon
0.6880000000	stepping stone
0.6880000000	ride sharing
0.6880000000	biologically motivated
0.6870000000	graphical model selection via convex
0.6870000000	expectation maximization em
0.6870000000	red green
0.6870000000	lateral connections
0.6860000000	low rank representation lrr
0.6860000000	directed acyclic
0.6860000000	boltzmann machines
0.6860000000	compressed sensing
0.6860000000	random walks
0.6860000000	trecvid med
0.6850000000	conformant planning
0.6840000000	thermal ir
0.6840000000	nurse scheduling
0.6830000000	pac learnable
0.6820000000	rows and columns
0.6820000000	machine translation
0.6820000000	linearly separable
0.6820000000	naming game
0.6820000000	360 degree
0.6820000000	handwritten characters
0.6810000000	code mixed indian social media
0.6810000000	image to image translation
0.6810000000	eye gaze
0.6810000000	ant colonies
0.6810000000	fingertip detection
0.6800000000	constraint programming cp
0.6800000000	impervious surface
0.6800000000	frobenius algebras
0.6800000000	computationally intensive
0.6800000000	monte carlo
0.6790000000	restricted boltzmann machines rbm
0.6790000000	occam s razor
0.6790000000	radiology reports
0.6790000000	facial expressions
0.6790000000	nist sre
0.6780000000	american sign language
0.6780000000	dendritic cell algorithm
0.6780000000	pascal voc 2007
0.6780000000	distance metric
0.6780000000	crossover operators
0.6770000000	left ventricle lv
0.6770000000	gibbs sampling
0.6770000000	caltech 256
0.6770000000	black box
0.6770000000	self organizing
0.6770000000	ridge regression
0.6770000000	resnet 101
0.6760000000	canonical correlation analysis cca
0.6760000000	named entity recognition ner
0.6760000000	montezuma s revenge
0.6760000000	cub 200 2011
0.6750000000	re id
0.6750000000	encoder decoder
0.6740000000	sum product networks spns
0.6740000000	titan x gpu
0.6740000000	prisoner s dilemma
0.6740000000	vgg 16
0.6740000000	false positive
0.6740000000	morphological inflection
0.6740000000	handwritten devnagari
0.6730000000	rectified linear unit relu
0.6730000000	cifar 10 cifar 100
0.6730000000	singular value decomposition
0.6730000000	hmdb 51
0.6730000000	look ahead
0.6730000000	medical jargon
0.6720000000	signal to noise ratio
0.6720000000	stationary ergodic
0.6720000000	alternating minimization
0.6720000000	low rank
0.6710000000	inverse reinforcement learning irl
0.6710000000	rotating spiral
0.6710000000	fine tuned
0.6710000000	caltech 101
0.6710000000	variational autoencoders
0.6700000000	bells and whistles
0.6700000000	attempto controlled english
0.6700000000	mobile devices
0.6700000000	medial axis
0.6700000000	abdominal ct
0.6700000000	frequent itemset
0.6690000000	rectified linear units
0.6690000000	alzheimer s disease
0.6690000000	foreground background separation
0.6690000000	multi agent
0.6680000000	real and synthetic
0.6680000000	internet of things
0.6680000000	word sense disambiguation
0.6680000000	pascal voc 2012
0.6680000000	lymph node
0.6680000000	de noising
0.6680000000	market 1501
0.6670000000	exploration and exploitation
0.6670000000	kendall s tau
0.6670000000	cervical cancer
0.6670000000	question answering
0.6670000000	marginal likelihood
0.6660000000	conference on uncertainty in artificial intelligence
0.6660000000	hundreds of thousands
0.6660000000	fiber bundles
0.6660000000	adjective noun
0.6660000000	axis aligned
0.6660000000	tilde o
0.6660000000	worth noting
0.6660000000	bench mark
0.6650000000	gradient langevin dynamics sgld
0.6650000000	expected utility
0.6650000000	citizen science
0.6650000000	collaborative filtering
0.6640000000	punctuation marks
0.6640000000	left corner
0.6640000000	suppression nms
0.6640000000	pan tilt
0.6640000000	shafer shenoy
0.6640000000	multinomial logit
0.6640000000	riemannian manifolds
0.6640000000	rademacher complexities
0.6640000000	resnet 50
0.6630000000	optical character recognition ocr
0.6630000000	stein variational gradient descent
0.6630000000	electronic health records ehr
0.6630000000	click through rate
0.6630000000	integer programming
0.6630000000	wolfe fw
0.6630000000	bilateral filtering
0.6630000000	batch sizes
0.6620000000	upper and lower bounds
0.6620000000	strengths and weaknesses
0.6620000000	association rule mining
0.6620000000	semantic relatedness
0.6620000000	concentration inequality
0.6620000000	extensively studied
0.6610000000	partially observable markov decision processes pomdps
0.6610000000	conditional random fields crfs
0.6610000000	congestive heart failure
0.6610000000	atari 2600 games
0.6610000000	tens of thousands
0.6610000000	point clouds
0.6610000000	url https
0.6610000000	rademacher complexity
0.6610000000	geo tagged
0.6600000000	natural language generation nlg
0.6600000000	advantages and disadvantages
0.6600000000	zernike moments
0.6600000000	tubal rank
0.6600000000	pulmonary nodule
0.6600000000	power consumption
0.6590000000	adverse drug reaction
0.6590000000	chest x rays
0.6590000000	np complete
0.6590000000	penetration testing
0.6590000000	95 ci
0.6580000000	unmanned aerial vehicle uav
0.6580000000	synthetic and real
0.6580000000	virtual reality vr
0.6580000000	news headlines
0.6580000000	variational autoencoder
0.6570000000	timing dependent plasticity stdp
0.6570000000	electronic health record ehr
0.6570000000	hilbert schmidt independence criterion
0.6570000000	web usage mining
0.6570000000	mathbf x 0
0.6570000000	early printed books
0.6570000000	ego motion
0.6570000000	cyber security
0.6570000000	coordinate descent
0.6570000000	load balancing
0.6570000000	triangle inequality
0.6570000000	kidney exchange
0.6570000000	polyphonic music
0.6560000000	health records ehrs
0.6560000000	health record ehr
0.6560000000	ground penetrating radar
0.6560000000	evolutionary algorithms eas
0.6560000000	mild cognitive impairment
0.6560000000	isometry property rip
0.6560000000	np hard
0.6560000000	widely adopted
0.6560000000	quantifier elimination
0.6560000000	exploding gradients
0.6560000000	ventricle lv
0.6550000000	markov random fields mrfs
0.6550000000	partial differential equations pdes
0.6550000000	cyborg astrobiologist
0.6550000000	bradley terry
0.6550000000	inertial odometry
0.6550000000	risk aversion
0.6550000000	entity typing
0.6550000000	random walk
0.6540000000	ordinary differential equation ode
0.6540000000	spiking neural networks snns
0.6540000000	markov chain monte carlo
0.6540000000	answer set programming asp
0.6540000000	health records ehr
0.6540000000	egocentric photo streams
0.6540000000	pros and cons
0.6540000000	fish school search
0.6540000000	cosine transform dct
0.6540000000	jensen shannon divergence
0.6540000000	theorem provers
0.6540000000	expectation propagation
0.6540000000	visually grounded
0.6540000000	fuzzy dess
0.6540000000	brownian motion
0.6530000000	dice similarity coefficient dsc
0.6530000000	parkinson s disease
0.6530000000	differential equation pde
0.6530000000	qualitative and quantitative
0.6530000000	na i ve
0.6530000000	person re identification
0.6530000000	eye tracking
0.6530000000	tomographic reconstruction
0.6530000000	embarrassingly parallel
0.6530000000	early warning
0.6530000000	risk averse
0.6530000000	coronary heart
0.6530000000	anaphora resolution
0.6530000000	confocal microscopy
0.6530000000	everyday life
0.6520000000	spoken language understanding slu
0.6520000000	stochastic variational inference svi
0.6520000000	visual cortex v1
0.6520000000	differential equation ode
0.6520000000	driver s gaze
0.6520000000	absolute error mae
0.6520000000	semidefinite programming sdp
0.6520000000	web service
0.6520000000	occupancy grids
0.6520000000	pairwise comparisons
0.6520000000	random forests
0.6510000000	satisfiability modulo theories smt
0.6510000000	modern standard arabic
0.6510000000	field programmable gate
0.6510000000	unmanned aerial vehicle
0.6510000000	aerial vehicle uav
0.6510000000	von mises fisher
0.6510000000	fine grained
0.6510000000	crowd workers
0.6510000000	pixel wise
0.6500000000	orders of magnitude
0.6500000000	receiver operating characteristic
0.6500000000	dezert smarandache theory
0.6500000000	word sense induction
0.6500000000	conversational telephone speech
0.6500000000	multi armed bandits
0.6500000000	dependent plasticity stdp
0.6500000000	deontic logic
0.6500000000	convex hull
0.6500000000	minimalist grammars
0.6500000000	impulse response
0.6500000000	hausdorff distance
0.6490000000	additive white gaussian noise
0.6490000000	rectified linear units relus
0.6490000000	root mean square error
0.6490000000	conditional random field crf
0.6490000000	disjunctive logic programs
0.6490000000	gated recurrent units
0.6490000000	epipolar line
0.6490000000	jaccard index
0.6490000000	ntu rgb
0.6490000000	exploitation dilemma
0.6490000000	multi task
0.6490000000	variational bayes
0.6480000000	observable markov decision process pomdp
0.6480000000	supervised and unsupervised
0.6480000000	particle swarm optimization
0.6480000000	dialog state tracking
0.6480000000	humanoid robot
0.6480000000	total variation
0.6480000000	pid controller
0.6480000000	cross sectional
0.6470000000	deep convolutional neural networks dcnns
0.6470000000	partial membership latent dirichlet allocation
0.6470000000	radial basis function
0.6470000000	inertial measurement unit
0.6470000000	closely related
0.6470000000	uci repository
0.6470000000	plagiarism detection
0.6470000000	light field
0.6470000000	quantum mechanics
0.6470000000	shannon entropy
0.6470000000	bellman equation
0.6460000000	leaky integrate and fire
0.6460000000	mnist and cifar 10
0.6460000000	artificial neural network ann
0.6460000000	mel frequency cepstral coefficients
0.6460000000	abstract argumentation frameworks
0.6460000000	extreme learning machines
0.6460000000	surface normals
0.6460000000	sequent calculus
0.6460000000	regret bounds
0.6460000000	broadcast news
0.6460000000	rough sets
0.6460000000	gabor wavelets
0.6460000000	service providers
0.6460000000	expectation maximisation
0.6450000000	multi layer perceptron mlp
0.6450000000	fat shattering dimension
0.6450000000	lipschitz continuity
0.6450000000	wavelet transform
0.6450000000	textual entailment
0.6450000000	smart home
0.6450000000	mid level
0.6450000000	sqrt t
0.6450000000	dew point
0.6450000000	multiarmed bandits
0.6440000000	hidden markov model hmm
0.6440000000	ontology based data access
0.6440000000	spread function psf
0.6440000000	resting state fmri
0.6440000000	hilbert schmidt
0.6440000000	widely applicable
0.6440000000	ground truth
0.6440000000	identically distributed
0.6430000000	mixed membership stochastic blockmodel
0.6430000000	singular value decomposition svd
0.6430000000	dirichlet process hdp
0.6430000000	robotic arm
0.6430000000	distantly supervised
0.6430000000	great promise
0.6430000000	frobenius norm
0.6430000000	precision recall
0.6430000000	attempto controlled
0.6430000000	nsga ii
0.6430000000	congestive heart
0.6430000000	tucker decomposition
0.6430000000	post editing
0.6430000000	wikipedia articles
0.6420000000	root mean square error rmse
0.6420000000	single image super resolution
0.6420000000	ucf101 and hmdb51
0.6420000000	ct scan
0.6420000000	sponsored search
0.6420000000	premature convergence
0.6420000000	scikit learn
0.6420000000	colorectal cancer
0.6420000000	gtr model
0.6420000000	worst case
0.6420000000	mri scans
0.6410000000	youtube 8m video understanding
0.6410000000	computer aided diagnosis
0.6410000000	male and female
0.6410000000	optical character recognition
0.6410000000	face detection
0.6410000000	irregularly sampled
0.6410000000	laplacian eigenmaps
0.6410000000	partial observability
0.6410000000	sat solver
0.6410000000	hawkes process
0.6410000000	performs competitively
0.6410000000	finite completability
0.6410000000	nus wide
0.6400000000	music auto tagging
0.6400000000	recurrent neural network
0.6400000000	semantic role labeling
0.6400000000	social welfare
0.6400000000	stochastic blockmodel
0.6400000000	markov chain
0.6400000000	zero shot
0.6400000000	spatio temporal
0.6400000000	dilated convolution
0.6400000000	logistic regression
0.6400000000	mnist digits
0.6400000000	conditional independencies
0.6400000000	conjunctive queries
0.6400000000	l0 norm
0.6400000000	adversely affect
0.6400000000	blood perfusion
0.6390000000	fully convolutional networks fcns
0.6390000000	markov decision processes mdps
0.6390000000	discrete wavelet transform dwt
0.6390000000	multi genre broadcast
0.6390000000	aided diagnosis cad
0.6390000000	social media
0.6390000000	infectious disease
0.6390000000	nyu depth
0.6390000000	wasserstein distance
0.6390000000	diophantine equations
0.6390000000	special cases
0.6390000000	explosive growth
0.6390000000	gabor wavelet
0.6390000000	service provider
0.6390000000	fine tuning
0.6390000000	cross entropy
0.6390000000	fuzzy sets
0.6380000000	support vector machine svm
0.6380000000	large vocabulary continuous speech
0.6380000000	facial action units aus
0.6380000000	artificial neural networks anns
0.6380000000	term frequency inverse document
0.6380000000	salient object detection
0.6380000000	video object segmentation
0.6380000000	upper confidence bound
0.6380000000	cur matrix decomposition
0.6380000000	style transfer
0.6380000000	grand challenge
0.6380000000	intensively studied
0.6380000000	calcium imaging
0.6380000000	gesture recognition
0.6380000000	quality assurance
0.6380000000	lower bound
0.6380000000	saliency maps
0.6380000000	pseudo boolean
0.6370000000	independent component analysis ica
0.6370000000	restricted boltzmann machine
0.6370000000	near infrared gray
0.6370000000	squared error mse
0.6370000000	artificial bee colony
0.6370000000	boltzmann machine
0.6370000000	hamiltonian monte
0.6370000000	strong convexity
0.6370000000	inter rater
0.6370000000	filter banks
0.6370000000	main contribution
0.6370000000	reinforcement learning
0.6370000000	fully connected
0.6370000000	log likelihood
0.6370000000	anomaly detection
0.6370000000	short term
0.6360000000	reproducing kernel hilbert spaces rkhs
0.6360000000	markov decision process mdp
0.6360000000	gated recurrent units gru
0.6360000000	propositional dynamic logic
0.6360000000	recurrent neural networks
0.6360000000	gated recurrent unit
0.6360000000	robotic manipulation
0.6360000000	rain removal
0.6360000000	raw waveform
0.6360000000	earth observation
0.6360000000	weakly supervised
0.6360000000	cuckoo search
0.6360000000	beam search
0.6360000000	bipartite ranking
0.6360000000	fully convolutional
0.6360000000	real life
0.6360000000	real valued
0.6360000000	pancreas segmentation
0.6360000000	computationally expensive
0.6360000000	multi modal
0.6360000000	api calls
0.6360000000	cross validation
0.6360000000	lower bounds
0.6360000000	junction tree
0.6350000000	wireless sensor networks
0.6350000000	bird s eye
0.6350000000	graphical user interface
0.6350000000	error correcting codes
0.6350000000	artificial general intelligence
0.6350000000	modified kneser ney
0.6350000000	lambek calculus
0.6350000000	matrix factorization
0.6350000000	vanishing gradients
0.6350000000	low dimensional
0.6350000000	recent years
0.6350000000	latent variable
0.6350000000	camera calibration
0.6350000000	socio economic
0.6350000000	bayesian nonparametrics
0.6350000000	body parts
0.6340000000	content based image retrieval cbir
0.6340000000	gaussian mixture model gmm
0.6340000000	natural language processing
0.6340000000	stochastic gradient descent
0.6340000000	dialectal arabic
0.6340000000	photo realistic
0.6340000000	untrimmed videos
0.6340000000	belief propagation
0.6340000000	partially occluded
0.6340000000	generalization bounds
0.6340000000	mahalanobis distance
0.6340000000	straight line
0.6330000000	convolutional neural network
0.6330000000	canonical correlation analysis
0.6330000000	markov random fields
0.6330000000	b bit minwise
0.6330000000	webly supervised
0.6330000000	mixed membership
0.6330000000	epipolar geometry
0.6330000000	single shot
0.6330000000	extensive experiments
0.6330000000	natural language
0.6330000000	dimension reduction
0.6330000000	counterexample guided
0.6330000000	dimensionality reduction
0.6330000000	inverse kinematics
0.6330000000	decision theoretic
0.6330000000	low rankness
0.6330000000	rand index
0.6330000000	annotator agreement
0.6330000000	camera shake
0.6330000000	multi class
0.6330000000	multi objective
0.6330000000	logic programs
0.6330000000	canonical polyadic
0.6330000000	gp lvm
0.6330000000	nonnegative matrix
0.6320000000	directed acyclic graph dag
0.6320000000	scale invariant feature transform
0.6320000000	indoor and outdoor
0.6320000000	grapheme to phoneme
0.6320000000	compressed sensing cs
0.6320000000	earth mover s
0.6320000000	convolutional neural networks
0.6320000000	convex optimization
0.6320000000	genetic programming
0.6320000000	wearable devices
0.6320000000	control variates
0.6320000000	supervisory signal
0.6320000000	renewable energy
0.6320000000	atmosphere light
0.6320000000	subspace clustering
0.6320000000	writing styles
0.6320000000	intrinsic motivation
0.6310000000	single shot multibox detector
0.6310000000	information directed sampling
0.6310000000	diffeomorphic metric mapping
0.6310000000	kaggle competition
0.6310000000	face alignment
0.6310000000	gradient descent
0.6310000000	artificial intelligence
0.6310000000	headline generation
0.6310000000	course timetabling
0.6310000000	indus script
0.6310000000	real world
0.6310000000	tensor decomposition
0.6310000000	error rate
0.6300000000	multi armed bandit mab
0.6300000000	gaussian mixture models gmm
0.6300000000	linear discriminant analysis
0.6300000000	generative adversarial network
0.6300000000	chest x ray
0.6300000000	experimental results
0.6300000000	6d pose
0.6300000000	kalman filtering
0.6300000000	computer aided
0.6300000000	convergence rates
0.6300000000	marginal polytope
0.6300000000	gaussian mixture
0.6300000000	saliency map
0.6300000000	hyperparameter tuning
0.6290000000	indian social media text
0.6290000000	generative adversarial networks gans
0.6290000000	visual question answering
0.6290000000	square error mse
0.6290000000	principal component analysis
0.6290000000	extensive experimental
0.6290000000	stochastic gradient
0.6290000000	hindi english
0.6290000000	moea d
0.6290000000	local minima
0.6290000000	scientific articles
0.6280000000	stochastic gradient langevin dynamics sgld
0.6280000000	integer programming mip
0.6280000000	person re id
0.6280000000	high dynamic range
0.6280000000	nystr om approximation
0.6280000000	generative adversarial
0.6280000000	left ventricular
0.6280000000	visual recognition
0.6280000000	ventral stream
0.6280000000	solomonoff induction
0.6280000000	autonomous cars
0.6280000000	constraint propagation
0.6280000000	human raters
0.6280000000	idri dataset
0.6280000000	factoid question
0.6280000000	tilde mathcal
0.6280000000	visually pleasing
0.6280000000	visually impaired
0.6270000000	principal component analysis pca
0.6270000000	confidence bound ucb
0.6270000000	generative adversarial networks
0.6270000000	hundreds of millions
0.6270000000	total variation tv
0.6270000000	higher order
0.6270000000	facial landmarks
0.6270000000	differential equation
0.6270000000	360 deg
0.6270000000	cost sensitive
0.6270000000	taylor expansion
0.6270000000	tensor decompositions
0.6270000000	permutation invariant
0.6270000000	plant phenotyping
0.6260000000	deep convolutional neural networks
0.6260000000	pickup and delivery
0.6260000000	deep neural networks
0.6260000000	t2 weighted
0.6260000000	mathscr c
0.6260000000	pearson correlation
0.6260000000	salient object
0.6260000000	finite dimensional
0.6250000000	simultaneous localization and mapping slam
0.6250000000	markov random field mrf
0.6250000000	iterative shrinkage thresholding
0.6250000000	hidden markov models
0.6250000000	probably approximately correct
0.6250000000	collaborative filtering cf
0.6250000000	tens of millions
0.6250000000	high throughput
0.6250000000	hidden markov
0.6250000000	kronecker product
0.6250000000	particle filter
0.6250000000	scientific papers
0.6250000000	large scale
0.6240000000	amp chain
0.6240000000	singing voice
0.6240000000	gaussian process
0.6240000000	l bfgs
0.6240000000	nature inspired
0.6230000000	peak signal to noise ratio
0.6230000000	signal to noise ratio snr
0.6230000000	frac 1 epsilon
0.6230000000	protein protein interactions
0.6230000000	semantically meaningful
0.6230000000	legendre moments
0.6230000000	lossy compression
0.6230000000	large amounts
0.6220000000	b ezier
0.6220000000	theoretical foundations
0.6220000000	predicate argument
0.6220000000	l2 norm
0.6220000000	notoriously difficult
0.6220000000	proximal splitting
0.6220000000	tabu search
0.6220000000	6 dof
0.6220000000	market maker
0.6220000000	straight forward
0.6210000000	support vector data description svdd
0.6210000000	upper confidence bound ucb
0.6210000000	answer set semantics
0.6210000000	proposal network rpn
0.6210000000	colony optimization aco
0.6210000000	imagenet vid
0.6210000000	morphological reinflection
0.6210000000	krylov subspace
0.6210000000	crossover operator
0.6200000000	gradient tree boosting
0.6200000000	few shot
0.6200000000	forgery detection
0.6200000000	face recognition
0.6200000000	additively separable
0.6200000000	e commerce
0.6200000000	human judges
0.6200000000	ill conditioned
0.6200000000	significant improvements
0.6200000000	hamming distance
0.6190000000	computer aided diagnosis cad
0.6190000000	hybrid linear modeling
0.6190000000	k nnc
0.6190000000	hand gestures
0.6190000000	privacy preserving
0.6190000000	spatially varying
0.6190000000	denoising autoencoders
0.6180000000	peak signal to noise ratio psnr
0.6180000000	nesterov s accelerated
0.6180000000	conflict redistribution rule
0.6180000000	dempster shafer theory
0.6180000000	correcting output codes
0.6180000000	traveling salesman problem
0.6180000000	grossly corrupted
0.6180000000	agglutinative languages
0.6180000000	deep convolutional
0.6180000000	indian languages
0.6180000000	saddle points
0.6180000000	electroencephalography eeg
0.6180000000	convolutional neural
0.6170000000	equal error rate eer
0.6170000000	rectified linear units relu
0.6170000000	structural similarity index ssim
0.6170000000	dirichlet process mixture
0.6170000000	evolving agent populations
0.6170000000	open source
0.6170000000	motion blur
0.6170000000	hinge loss
0.6170000000	factoid questions
0.6170000000	generalization ability
0.6170000000	synthetically generated
0.6160000000	matrix adaptation evolution strategy cma es
0.6160000000	chain monte carlo mcmc
0.6160000000	resonance imaging mri
0.6160000000	benign and malignant
0.6160000000	extreme learning machine
0.6160000000	reprojection error
0.6160000000	ilsvrc 2012
0.6160000000	almost surely
0.6160000000	decision support
0.6160000000	state space
0.6150000000	hand pose estimation
0.6150000000	absolute percentage error
0.6150000000	smart homes
0.6150000000	smart phones
0.6150000000	missing entries
0.6150000000	massive amounts
0.6150000000	saliency detection
0.6150000000	heavy tails
0.6140000000	skin lesion analysis towards melanoma detection
0.6140000000	sparse representation based classification src
0.6140000000	temporal difference td
0.6140000000	indian buffet process
0.6140000000	sensory motor
0.6140000000	fourier transform
0.6140000000	local extrema
0.6140000000	constituency parsing
0.6140000000	junction trees
0.6130000000	graphics processing units gpus
0.6130000000	latent semantic analysis lsa
0.6130000000	google street view
0.6130000000	word vectors
0.6130000000	matrix variate
0.6130000000	binary codes
0.6130000000	crowded scenes
0.6130000000	mnist cifar
0.6130000000	decision maker
0.6130000000	digital humanities
0.6130000000	renormalization group
0.6130000000	concept drift
0.6130000000	function approximators
0.6130000000	fuzzy logic
0.6120000000	practice of logic programming tplp
0.6120000000	advanced driver assistance
0.6120000000	rectified linear unit
0.6120000000	recurrent unit gru
0.6120000000	autonomous navigation
0.6120000000	constraint programming
0.6120000000	kolmogorov complexity
0.6120000000	relation extraction
0.6110000000	direction method of multipliers admm
0.6110000000	minimum description length mdl
0.6110000000	document image binarization
0.6110000000	facial beauty
0.6110000000	precision medicine
0.6110000000	hidden units
0.6110000000	oracle inequalities
0.6110000000	ill posed
0.6110000000	chronic diseases
0.6110000000	finite horizon
0.6110000000	times faster
0.6110000000	bellman residual
0.6100000000	horizontal and vertical
0.6100000000	dynamic mode decomposition
0.6100000000	directed acyclic graphs
0.6100000000	mentioned above
0.6100000000	gradient ascent
0.6100000000	scientific disciplines
0.6100000000	adversarial attacks
0.6100000000	recurrent neural
0.6090000000	variational auto encoder vae
0.6090000000	wirtinger s calculus
0.6090000000	multi layer perceptrons
0.6090000000	head pose
0.6090000000	affinity propagation
0.6090000000	co occurrences
0.6090000000	saddle point
0.6080000000	necessary and sufficient
0.6080000000	temporal classification ctc
0.6080000000	influence maximization
0.6080000000	hand engineered
0.6080000000	laplacian pyramid
0.6080000000	sentiment analysis
0.6080000000	spectral clustering
0.6080000000	self paced
0.6080000000	ais bn
0.6080000000	flow cytometry
0.6070000000	f w net
0.6070000000	principal component pursuit
0.6070000000	trifocal tensor
0.6070000000	affine subspaces
0.6070000000	correctly classified
0.6070000000	singly connected
0.6070000000	remarkable progress
0.6070000000	memory footprint
0.6060000000	maximum likelihood estimation mle
0.6060000000	kernel hilbert space rkhs
0.6060000000	character recognition
0.6060000000	forward chaining
0.6050000000	8m video understanding challenge
0.6050000000	vector regression svr
0.6050000000	linear embedding lle
0.6050000000	facial expression recognition
0.6050000000	bayes nets
0.6050000000	video captioning
0.6040000000	conjunctive normal form
0.6040000000	k means
0.6040000000	hand crafting
0.6040000000	t sne
0.6040000000	emotion recognition
0.6040000000	sparsity inducing
0.6040000000	video clips
0.6030000000	shape from shading
0.6030000000	english german
0.6030000000	opinion mining
0.6030000000	widely studied
0.6030000000	gene regulatory
0.6030000000	aspect ratio
0.6030000000	isotonic regression
0.6030000000	error bounds
0.6030000000	grows exponentially
0.6020000000	lesion analysis towards melanoma detection
0.6020000000	sparse coding
0.6020000000	supplementary material
0.6020000000	turing machines
0.6020000000	image segmentation
0.6020000000	dependency parsing
0.6020000000	360 circ
0.6020000000	contrast enhancement
0.6020000000	author profiling
0.6020000000	human beings
0.6020000000	co occurrence
0.6020000000	modulo theories
0.6020000000	multi hop
0.6010000000	partial differential equations
0.6010000000	street view
0.6010000000	path planning
0.6010000000	dialogue acts
0.6010000000	multi armed
0.6010000000	binding affinity
0.6000000000	6d object pose
0.6000000000	bidirectional lstm
0.6000000000	sentiment polarity
0.6000000000	lie group
0.5990000000	missing value imputation
0.5990000000	binary pattern lbp
0.5990000000	exponential family
0.5990000000	co occurring
0.5990000000	quality assessment
0.5980000000	multi task learning mtl
0.5980000000	p adic
0.5980000000	ablation studies
0.5980000000	multi view
0.5970000000	locally linear embedding lle
0.5970000000	based image retrieval cbir
0.5970000000	self driving cars
0.5970000000	log determinant
0.5970000000	object tracking
0.5970000000	well suited
0.5960000000	ontology language owl
0.5960000000	proper scoring rules
0.5960000000	smart phone
0.5960000000	conditional probability
0.5960000000	photon counting
0.5960000000	object detection
0.5950000000	monocular depth estimation
0.5950000000	timing dependent plasticity
0.5950000000	upper confidence
0.5950000000	propositional logic
0.5950000000	filter bank
0.5950000000	multinomial logistic
0.5950000000	low resolution
0.5950000000	becoming increasingly
0.5950000000	denoising autoencoder
0.5940000000	part of speech tagging
0.5940000000	human computer interaction hci
0.5940000000	ubuntu dialogue
0.5940000000	word spotting
0.5940000000	new york
0.5940000000	block diagonal
0.5940000000	selectional preferences
0.5940000000	weak supervision
0.5940000000	active contours
0.5940000000	eeg signals
0.5940000000	time series
0.5940000000	durative actions
0.5940000000	reproducing kernels
0.5930000000	isic 2017 skin lesion
0.5930000000	job shop scheduling
0.5930000000	collapsed gibbs sampling
0.5930000000	hilbert spaces
0.5930000000	possibilistic logic
0.5930000000	rough set
0.5930000000	fast marching
0.5930000000	ucf sports
0.5930000000	valued logics
0.5930000000	oil gas
0.5920000000	satisfaction problem csp
0.5920000000	fo id
0.5920000000	public health
0.5920000000	group lasso
0.5920000000	breast tissue
0.5920000000	adversarial examples
0.5920000000	multi talker
0.5920000000	texture synthesis
0.5910000000	compression by multiple alignment unification
0.5910000000	fully convolutional network fcn
0.5910000000	rough set theory rst
0.5910000000	swarm optimization pso
0.5910000000	low rank matrix
0.5910000000	future research
0.5910000000	put forward
0.5900000000	markov random field gmrf
0.5900000000	information criterion bic
0.5900000000	cosine similarity
0.5900000000	stance detection
0.5900000000	takes place
0.5900000000	partially ordered
0.5890000000	carlo tree search mcts
0.5890000000	intersection over union iou
0.5890000000	integer linear programming ilp
0.5890000000	a wide variety
0.5890000000	maximum mean discrepancy
0.5890000000	word embeddings
0.5890000000	grounded circumscription
0.5880000000	unsupervised domain adaptation
0.5880000000	fold cross validation
0.5880000000	affine invariant
0.5880000000	drug discovery
0.5880000000	action recognition
0.5880000000	computationally inexpensive
0.5880000000	multi pie
0.5870000000	formal concept analysis fca
0.5870000000	encoder and decoder
0.5870000000	copy move forgery
0.5870000000	smart grid
0.5870000000	visible spectrum
0.5870000000	choquet integral
0.5870000000	parse trees
0.5870000000	inner product
0.5860000000	hand crafted features
0.5860000000	figure of merit
0.5860000000	the lambek grishin
0.5860000000	received little attention
0.5860000000	handwritten character recognition
0.5860000000	word representations
0.5860000000	builds upon
0.5860000000	ear recognition
0.5850000000	structure from motion sfm
0.5850000000	extreme learning machine elm
0.5850000000	academia and industry
0.5850000000	intrinsic image decomposition
0.5850000000	visual inertial odometry
0.5850000000	hand written digit
0.5850000000	extensive experimentation
0.5850000000	prior knowledge
0.5850000000	omega sqrt
0.5850000000	cognitive radio
0.5850000000	lagrangian relaxation
0.5850000000	conll 2003
0.5840000000	negation as failure
0.5840000000	mixtures of gaussians
0.5840000000	conjugate gradient
0.5840000000	chain monte
0.5840000000	domain adaptation
0.5840000000	existential rules
0.5830000000	directions for future research
0.5830000000	human robot interaction
0.5830000000	human action recognition
0.5830000000	low dose
0.5820000000	bidirectional long short term memory blstm
0.5820000000	independent and identically distributed
0.5820000000	matrix adaptation evolution strategy
0.5820000000	computer interface bci
0.5820000000	correlation coefficient
0.5820000000	bandit feedback
0.5820000000	deep learning
0.5820000000	feature selection
0.5820000000	back propagated
0.5820000000	multi faceted
0.5810000000	degree of freedom
0.5810000000	web 2.0
0.5810000000	semantic wikis
0.5810000000	residual connections
0.5800000000	maximum mean discrepancy mmd
0.5800000000	internet of things iot
0.5800000000	disjoint camera views
0.5800000000	vector quantization
0.5800000000	building blocks
0.5800000000	pair wise
0.5800000000	open sourced
0.5800000000	finite element
0.5800000000	object proposals
0.5800000000	sheds light
0.5790000000	distributional semantics
0.5790000000	covariance matrices
0.5790000000	positive definiteness
0.5790000000	importance sampling
0.5790000000	computationally prohibitive
0.5790000000	variational inference
0.5780000000	skeleton based action recognition
0.5780000000	foreground and background
0.5780000000	traffic congestion
0.5780000000	bidirectional lstms
0.5780000000	edge detection
0.5780000000	cognitive science
0.5780000000	epsilon delta
0.5780000000	bayesian optimization
0.5770000000	direction method of multipliers
0.5770000000	x and y
0.5770000000	sum of squares
0.5770000000	mobile robots
0.5770000000	speaker recognition
0.5770000000	binding sites
0.5760000000	semi supervised learning ssl
0.5760000000	bag of words bow
0.5760000000	don t
0.5760000000	question answer
0.5760000000	instance segmentation
0.5760000000	attracted considerable
0.5760000000	risk sensitive
0.5750000000	non negative matrix factorization nmf
0.5750000000	fitted q iteration
0.5750000000	automatic speech recognition
0.5750000000	statistical machine translation
0.5750000000	turing complete
0.5750000000	statistical mechanics
0.5750000000	genome wide
0.5750000000	computationally intractable
0.5740000000	simultaneous localization and mapping
0.5740000000	mean squared error mse
0.5740000000	divide and conquer
0.5740000000	graphics processing units
0.5740000000	depth estimation
0.5740000000	social dilemmas
0.5740000000	machine readable
0.5740000000	naturalistic driving
0.5740000000	mutation operator
0.5740000000	power law
0.5740000000	cross modality
0.5730000000	multiple instance learning mil
0.5730000000	synthetic and real world
0.5730000000	fuzzy c means
0.5730000000	instance learning mil
0.5730000000	positive or negative
0.5730000000	automatic relevance determination
0.5730000000	feature extractors
0.5730000000	low precision
0.5730000000	particle picking
0.5730000000	entity mentions
0.5720000000	histogram of oriented gradients
0.5720000000	order of magnitude
0.5720000000	action units aus
0.5720000000	holistically nested
0.5720000000	pose estimation
0.5720000000	water fat
0.5710000000	high dynamic range hdr
0.5710000000	low rank matrix completion
0.5710000000	the transferable belief
0.5710000000	source and target
0.5710000000	multi task learning
0.5710000000	visual odometry
0.5710000000	rubik s
0.5710000000	lp relaxations
0.5710000000	causal inference
0.5710000000	ex vivo
0.5700000000	earth mover s distance
0.5700000000	sensitivity and specificity
0.5700000000	finite state transducers
0.5700000000	description framework rdf
0.5700000000	lower and upper
0.5700000000	cpu and gpu
0.5700000000	stochastic optimization
0.5700000000	stl 10
0.5700000000	multiple sclerosis
0.5690000000	zero shot learning zsl
0.5690000000	hidden semi markov model
0.5690000000	simulated and real
0.5690000000	row and column
0.5690000000	fractional order
0.5690000000	spectral unmixing
0.5690000000	random ferns
0.5690000000	inner products
0.5690000000	lifted inference
0.5680000000	approximate bayesian computation abc
0.5680000000	chinese character
0.5680000000	wasserstein gan
0.5680000000	spatial pyramid
0.5680000000	commonsense knowledge
0.5680000000	loss function
0.5680000000	uplift modeling
0.5670000000	presence or absence
0.5670000000	quantitatively and qualitatively
0.5670000000	semantic similarity
0.5670000000	banach spaces
0.5670000000	particle filtering
0.5670000000	consecutive frames
0.5670000000	manually annotated
0.5670000000	reservoir computing
0.5660000000	stochastic variance reduced gradient svrg
0.5660000000	forward and backward
0.5660000000	researchers and practitioners
0.5660000000	mixture of gaussians
0.5660000000	theoretically and empirically
0.5660000000	aerial vehicles uavs
0.5660000000	dynamic time warping
0.5660000000	cyber physical systems
0.5660000000	branch and bound
0.5660000000	single view
0.5660000000	facial attractiveness
0.5660000000	micro expression
0.5660000000	pattern mining
0.5650000000	part of speech pos
0.5650000000	easy to implement
0.5650000000	precision and recall
0.5650000000	basis function rbf
0.5650000000	goodness of fit
0.5650000000	upper and lower
0.5650000000	sarcasm detection
0.5650000000	bleu points
0.5650000000	scene parsing
0.5640000000	magnetic resonance images mri
0.5640000000	factors of variation
0.5640000000	block coordinate descent
0.5640000000	qualitatively and quantitatively
0.5640000000	multiple kernel learning
0.5640000000	gated recurrent
0.5640000000	policy makers
0.5640000000	o log
0.5640000000	determinantal point
0.5630000000	leave one out cross validation
0.5630000000	error correcting output codes
0.5630000000	human pose estimation
0.5630000000	filtered back projection
0.5630000000	spoofing attacks
0.5630000000	semantic segmentation
0.5630000000	dcase 2016
0.5630000000	graph coloring
0.5630000000	l 0
0.5620000000	faster r cnn
0.5620000000	sound and complete
0.5620000000	positive and negative
0.5620000000	human computer interaction
0.5620000000	quantitative and qualitative
0.5620000000	humanoid robots
0.5620000000	product reviews
0.5620000000	cub 200
0.5620000000	medical diagnosis
0.5610000000	linear unit relu
0.5610000000	plug and play
0.5610000000	degrees of freedom
0.5610000000	slice by slice
0.5610000000	trial and error
0.5610000000	robot navigation
0.5610000000	convex relaxation
0.5610000000	multilayer feedforward
0.5610000000	x y
0.5610000000	lighting conditions
0.5610000000	spoken language
0.5610000000	computationally tractable
0.5610000000	collective intelligence
0.5600000000	cifar 10 and cifar 100
0.5600000000	frequency inverse document frequency
0.5600000000	coarse to fine
0.5600000000	task learning mtl
0.5600000000	experimental evaluation
0.5600000000	k medoids
0.5600000000	artificial intelligences
0.5600000000	mutation rate
0.5600000000	front end
0.5600000000	hash table
0.5600000000	pronunciation lexicon
0.5600000000	icdar 2015
0.5600000000	bi lstm
0.5590000000	bag of words
0.5590000000	layer by layer
0.5590000000	causal discovery
0.5590000000	n grams
0.5580000000	robust principal component analysis rpca
0.5580000000	cifar 100 and svhn
0.5580000000	gaussian mixture models gmms
0.5580000000	dirichlet process mixtures
0.5580000000	bit minwise hashing
0.5580000000	end to end
0.5580000000	virtual worlds
0.5580000000	steering angle
0.5580000000	trend filtering
0.5580000000	local search
0.5580000000	singular values
0.5570000000	alzheimer s disease ad
0.5570000000	invariant feature transform sift
0.5570000000	local means nlm
0.5570000000	time warping dtw
0.5570000000	point of view
0.5570000000	voynich manuscript
0.5570000000	negative binomial
0.5570000000	person reid
0.5570000000	fraud detection
0.5570000000	computationally feasible
0.5570000000	renewed interest
0.5570000000	randomly selected
0.5560000000	support vector regression svr
0.5560000000	explicitly or implicitly
0.5560000000	crisp and fuzzy
0.5560000000	singular value thresholding
0.5560000000	submodular functions
0.5560000000	lexical resources
0.5560000000	last year
0.5560000000	brain activity
0.5550000000	user and item
0.5550000000	approximate nearest neighbor
0.5550000000	visual tracking
0.5550000000	conditional independence
0.5550000000	graph laplacians
0.5550000000	multi variate
0.5550000000	named entities
0.5540000000	dose x ray ct
0.5540000000	empirical mode decomposition
0.5540000000	inter and intra
0.5540000000	web browsers
0.5540000000	transfer learning
0.5540000000	background clutters
0.5540000000	contourlet transform
0.5540000000	widely recognized
0.5540000000	steady state
0.5540000000	gabor filters
0.5540000000	block coordinate
0.5540000000	rotationally invariant
0.5540000000	speech recognition
0.5540000000	query answering
0.5540000000	iris recognition
0.5540000000	density estimation
0.5540000000	random reshuffling
0.5530000000	including but not limited
0.5530000000	intra and inter
0.5530000000	bacterial foraging optimization
0.5530000000	multi objective optimization
0.5530000000	fourier bessel
0.5530000000	media outlets
0.5530000000	prepositional phrase
0.5530000000	visuo motor
0.5530000000	pole balancing
0.5530000000	error prone
0.5520000000	term frequency inverse document frequency
0.5520000000	similarities and differences
0.5520000000	mathbb r d
0.5520000000	arcade learning environment
0.5520000000	soundness and completeness
0.5520000000	deep reinforcement learning
0.5520000000	schatten p
0.5520000000	image retrieval
0.5520000000	roman script
0.5520000000	hypothesis testing
0.5520000000	euclidean distance
0.5520000000	20th century
0.5510000000	statistical relational learning srl
0.5510000000	local binary patterns lbp
0.5510000000	hidden markov models hmms
0.5510000000	layer wise relevance propagation
0.5510000000	gaussian processes gps
0.5510000000	text to speech
0.5510000000	curse of dimensionality
0.5510000000	left ventricle
0.5510000000	weakly labeled
0.5510000000	local optima
0.5510000000	intrusion detection
0.5500000000	cross language information retrieval
0.5500000000	multi document summarization
0.5500000000	image denoising
0.5500000000	high resolution
0.5500000000	perfect recall
0.5500000000	hybrid monte
0.5500000000	itemset mining
0.5490000000	reproducing kernel hilbert space
0.5490000000	kernel ridge regression
0.5490000000	intersection over union
0.5490000000	pancreatic cancer
0.5490000000	source separation
0.5490000000	point cloud
0.5490000000	search engines
0.5490000000	infinite dimensional
0.5480000000	handwritten chinese character recognition
0.5480000000	modulo theories smt
0.5480000000	ct angiography
0.5480000000	bit width
0.5480000000	promoter region
0.5480000000	strongly convex
0.5480000000	multivariate hawkes
0.5480000000	iterative deepening
0.5480000000	stiefel manifold
0.5480000000	imagenet 1k
0.5480000000	substantial improvements
0.5480000000	pedestrian detection
0.5480000000	power dissipation
0.5480000000	native language
0.5470000000	low dose x ray
0.5470000000	roc curve auc
0.5470000000	sense disambiguation wsd
0.5470000000	free lunch
0.5470000000	face verification
0.5470000000	spatial resolution
0.5470000000	cooperative coevolution
0.5470000000	laplace beltrami
0.5470000000	universal approximators
0.5470000000	contingency table
0.5470000000	n gram
0.5470000000	gaussian noise
0.5470000000	cite dblp
0.5460000000	covariance matrix adaptation evolution strategy
0.5460000000	taking into account
0.5460000000	coherence tomography oct
0.5460000000	nystr om method
0.5460000000	stochastic blockmodels
0.5460000000	exponentially decaying
0.5460000000	manual annotation
0.5460000000	optimal transport
0.5460000000	likelihood ratio
0.5450000000	histogram of oriented gradients hog
0.5450000000	multiple kernel learning mkl
0.5450000000	linear discriminant analysis lda
0.5450000000	knowledge base completion
0.5450000000	bin packing problem
0.5450000000	neural style transfer
0.5450000000	sensitive hashing lsh
0.5440000000	trust region policy optimization
0.5440000000	genetic algorithm ga
0.5440000000	acyclic graphs dags
0.5440000000	products and services
0.5440000000	wide applicability
0.5440000000	statistically significant
0.5440000000	seamless integration
0.5440000000	evasion attacks
0.5440000000	previously unseen
0.5440000000	weight sharing
0.5440000000	ms ssim
0.5440000000	medical imaging
0.5440000000	blood pressure
0.5430000000	stochastic gradient descent sgd
0.5430000000	support vector machines svms
0.5430000000	leibler kl divergence
0.5430000000	finite state transducer
0.5430000000	latent semantic indexing
0.5430000000	covering based rough
0.5430000000	facial landmark detection
0.5430000000	answer sets
0.5430000000	face hallucination
0.5430000000	numerical simulations
0.5430000000	european parliament
0.5430000000	randomly generated
0.5430000000	variance reduction
0.5420000000	person re identification re id
0.5420000000	restricted isometry property rip
0.5420000000	online handwritten chinese
0.5420000000	genetic algorithms gas
0.5420000000	play important roles
0.5420000000	artificial immune systems
0.5420000000	english hindi
0.5420000000	fixed point
0.5420000000	pre processing
0.5420000000	hand written
0.5420000000	artificial life
0.5420000000	quadratic programming
0.5420000000	main contributions
0.5420000000	benchmark datasets
0.5420000000	decision tree
0.5420000000	numerical experiments
0.5420000000	video frames
0.5420000000	maximum entropy
0.5420000000	peripheral vision
0.5410000000	content based image retrieval
0.5410000000	natural language processing nlp
0.5410000000	deep neural networks dnns
0.5410000000	recurrent neural network rnn
0.5410000000	question answer pairs
0.5410000000	nonconvex and nonsmooth
0.5410000000	word embedding
0.5410000000	image processing
0.5410000000	gray scale
0.5410000000	darwinian evolution
0.5410000000	low level
0.5410000000	dynamic programming
0.5410000000	training data
0.5410000000	multi dimensional
0.5410000000	bayesian networks
0.5410000000	activity recognition
0.5410000000	maximum margin
0.5400000000	gray level co occurrence matrix
0.5400000000	sketch based image retrieval
0.5400000000	low rank matrix recovery
0.5400000000	blood perfusion data
0.5400000000	multi label learning
0.5400000000	magnetic resonance mr
0.5400000000	cross modal retrieval
0.5400000000	handwritten devnagari character
0.5400000000	pre trained
0.5400000000	moba games
0.5400000000	theoretical guarantees
0.5400000000	significantly improves
0.5400000000	high order
0.5400000000	significantly improve
0.5400000000	significantly outperforms
0.5400000000	deep networks
0.5400000000	previous works
0.5400000000	long range
0.5400000000	optimization problems
0.5400000000	pattern recognition
0.5400000000	attention mechanism
0.5400000000	feature vectors
0.5400000000	low cost
0.5400000000	ell 2
0.5400000000	sample complexity
0.5400000000	recent works
0.5400000000	latent variables
0.5400000000	epistemic logic
0.5400000000	computational cost
0.5400000000	multi scale
0.5400000000	computational complexity
0.5400000000	random forest
0.5400000000	random variables
0.5400000000	gaussian processes
0.5400000000	probability distributions
0.5390000000	recurrent neural networks rnns
0.5390000000	mnist and cifar10
0.5390000000	reinforcement learning rl
0.5390000000	minimum vertex cover
0.5390000000	objective function
0.5390000000	image classification
0.5390000000	single nucleotide
0.5390000000	posterior probabilities
0.5390000000	linear regression
0.5390000000	maximal ancestral
0.5390000000	convergence rate
0.5390000000	topic modeling
0.5390000000	embedded devices
0.5390000000	largely unexplored
0.5390000000	data sets
0.5390000000	artistic style
0.5390000000	multi lingual
0.5390000000	random projections
0.5390000000	convolutional layers
0.5390000000	perceptrons mlp
0.5390000000	loss functions
0.5390000000	post processing
0.5380000000	convolutional neural network cnn
0.5380000000	support vector data description
0.5380000000	crossover and mutation
0.5380000000	world wide web
0.5380000000	vector machines svms
0.5380000000	stochastic neighbor embedding
0.5380000000	knowledge bases
0.5380000000	social networking
0.5380000000	individualized treatment
0.5380000000	consumer grade
0.5380000000	mountain car
0.5380000000	feature engineering
0.5380000000	feature maps
0.5380000000	computer graphics
0.5380000000	general purpose
0.5380000000	evolutionary computation
0.5380000000	jpeg compression
0.5380000000	computationally efficient
0.5380000000	cutting edge
0.5380000000	convolutional networks
0.5380000000	manually labeled
0.5380000000	closed form
0.5380000000	object recognition
0.5370000000	step by step
0.5370000000	image super resolution
0.5370000000	multi person pose
0.5370000000	high level
0.5370000000	faster convergence
0.5370000000	vanishing point
0.5370000000	intra operative
0.5370000000	gold standard
0.5370000000	digital elevation
0.5370000000	categorial grammar
0.5370000000	n ary
0.5370000000	entity disambiguation
0.5360000000	mixed integer linear programming
0.5360000000	deep neural network dnn
0.5360000000	machine learning
0.5360000000	source code
0.5360000000	empirical studies
0.5360000000	empirical evidence
0.5360000000	previous studies
0.5360000000	domain specific
0.5360000000	signal processing
0.5360000000	aspect ratios
0.5360000000	feature extraction
0.5360000000	computer assisted
0.5360000000	evaluation metrics
0.5360000000	decision trees
0.5360000000	variable selection
0.5360000000	recent studies
0.5360000000	adversarial training
0.5360000000	computational efficiency
0.5360000000	video sequences
0.5360000000	scene understanding
0.5360000000	classification accuracy
0.5360000000	neural network
0.5360000000	bayesian inference
0.5360000000	vehicle license
0.5350000000	convolutional neural networks cnns
0.5350000000	true online td
0.5350000000	deep neural network
0.5350000000	multi class classification
0.5350000000	objective functions
0.5350000000	activation functions
0.5350000000	cur matrix
0.5350000000	principal components
0.5350000000	dependency parser
0.5350000000	provably convergent
0.5350000000	fine details
0.5350000000	sufficient statistics
0.5350000000	feature space
0.5350000000	protein protein
0.5350000000	success rate
0.5350000000	newspaper articles
0.5350000000	similarity measures
0.5350000000	classification tasks
0.5350000000	outlier detection
0.5340000000	support vector machines svm
0.5340000000	human activity recognition
0.5340000000	gaussian mixture model
0.5340000000	word senses
0.5340000000	game theoretic
0.5340000000	high accuracy
0.5340000000	existing approaches
0.5340000000	literary texts
0.5340000000	long term
0.5340000000	bilateral filter
0.5340000000	decision making
0.5340000000	moderately sized
0.5340000000	multi channel
0.5340000000	probabilistic inference
0.5340000000	concave saddle
0.5330000000	deep reinforcement learning drl
0.5330000000	convolutional neural networks cnn
0.5330000000	mnist handwritten digit
0.5330000000	fully connected layers
0.5330000000	fixed parameter tractable
0.5330000000	goes to infinity
0.5330000000	shop scheduling
0.5330000000	significantly improved
0.5330000000	argumentation frameworks
0.5330000000	parallel corpora
0.5330000000	privileged information
0.5330000000	missed detections
0.5330000000	restrictive assumptions
0.5330000000	density ratio
0.5330000000	neural nets
0.5320000000	echo state networks
0.5320000000	experimental results demonstrate
0.5320000000	word error rate
0.5320000000	day ahead
0.5320000000	bounded treewidth
0.5320000000	software engineering
0.5320000000	energy minimization
0.5320000000	significantly outperform
0.5320000000	principal component
0.5320000000	gradient boosting
0.5320000000	trade off
0.5320000000	gaussian mixtures
0.5320000000	semeval 2017
0.5320000000	frac 1
0.5310000000	region of interest roi
0.5310000000	rightarrow mathbb r
0.5310000000	lower bound elbo
0.5310000000	cross entropy loss
0.5310000000	trades off
0.5310000000	tree structured
0.5310000000	high frequency
0.5310000000	high quality
0.5310000000	expert demonstrations
0.5310000000	firefly algorithm
0.5310000000	ill posedness
0.5310000000	least square
0.5310000000	crowd powered
0.5310000000	commonsense reasoning
0.5310000000	neural networks
0.5310000000	object detectors
0.5300000000	maximum likelihood estimation
0.5300000000	factoid question answering
0.5300000000	independent component analysis
0.5300000000	future directions
0.5300000000	dataflow matrix
0.5300000000	test bed
0.5300000000	cardiac mr
0.5300000000	kernel cca
0.5300000000	neuromorphic hardware
0.5300000000	conversational telephone
0.5300000000	multi layer
0.5300000000	handwritten character
0.5300000000	elastic net
0.5290000000	long short term memory networks lstms
0.5290000000	vocabulary continuous speech recognition
0.5290000000	description length mdl
0.5290000000	high precision
0.5290000000	twitter messages
0.5290000000	hidden layers
0.5290000000	optimization problem
0.5290000000	stein variational
0.5290000000	coded aperture
0.5290000000	risk minimization
0.5290000000	unmanned aerial
0.5290000000	wind energy
0.5290000000	probability distribution
0.5280000000	computed tomography ct scans
0.5280000000	estimation of distribution algorithms
0.5280000000	monte carlo tree search
0.5280000000	tree adjoining grammar
0.5280000000	acyclic graph dag
0.5280000000	low rank tensor
0.5280000000	variational autoencoder vae
0.5280000000	vector valued
0.5280000000	hand pose
0.5280000000	rational closure
0.5280000000	mnist svhn
0.5280000000	caltech pedestrian
0.5280000000	proximal gradient
0.5280000000	de fencing
0.5280000000	things iot
0.5270000000	scale invariant feature transform sift
0.5270000000	uci machine learning repository
0.5270000000	mixed integer programming mip
0.5270000000	text to speech tts
0.5270000000	root mean square
0.5270000000	real world applications
0.5270000000	extended version
0.5270000000	2nd order
0.5270000000	conditionally independent
0.5270000000	cyber attack
0.5270000000	recommender systems
0.5270000000	back propagation
0.5270000000	laser scanning
0.5270000000	log n
0.5270000000	cluttered scenes
0.5270000000	fuzzy set
0.5260000000	word error rate wer
0.5260000000	long range dependencies
0.5260000000	local binary patterns
0.5260000000	annealed importance sampling
0.5260000000	symmetric and asymmetric
0.5260000000	similarity coefficient dsc
0.5260000000	artificial intelligence ai
0.5260000000	image level labels
0.5260000000	knowledge base
0.5260000000	face images
0.5260000000	theoretical foundation
0.5260000000	existing methods
0.5260000000	context aware
0.5260000000	state ofthe
0.5260000000	parameter estimation
0.5260000000	recent developments
0.5260000000	multi stage
0.5260000000	asymptotic normality
0.5260000000	weight decay
0.5250000000	bidirectional long short term memory
0.5250000000	goodfellow et al
0.5250000000	leave one out
0.5250000000	clinical notes
0.5250000000	extensive simulations
0.5250000000	theoretical findings
0.5250000000	test set
0.5250000000	sleep stage
0.5250000000	traffic flow
0.5250000000	attention mechanisms
0.5250000000	lambda calculus
0.5250000000	low power
0.5250000000	community detection
0.5250000000	financial markets
0.5240000000	non negative matrix factorization
0.5240000000	deep convolutional neural network
0.5240000000	formal concept analysis
0.5240000000	pre defined
0.5240000000	software packages
0.5240000000	edit distance
0.5240000000	high probability
0.5240000000	deep architectures
0.5240000000	massively parallel
0.5240000000	gabor filter
0.5240000000	main result
0.5240000000	causal relationships
0.5240000000	search engine
0.5240000000	buffet process
0.5240000000	finite sum
0.5240000000	cross situational
0.5240000000	outer products
0.5230000000	augmented reality ar
0.5230000000	undirected graphical models
0.5230000000	guaranteed to converge
0.5230000000	sigmoid belief networks
0.5230000000	practical applications
0.5230000000	inductive definitions
0.5230000000	batch size
0.5230000000	description logic
0.5230000000	similarity measure
0.5230000000	spd matrix
0.5230000000	lower dimensional
0.5220000000	dimensional euclidean space
0.5220000000	gaussian process gp
0.5220000000	image to image
0.5220000000	abductive logic
0.5220000000	wearable cameras
0.5220000000	human robot
0.5220000000	privacy concerns
0.5220000000	least squares
0.5220000000	finite sample
0.5210000000	dempster s rule of combination
0.5210000000	activities of daily living
0.5210000000	human computer conversation
0.5210000000	age and gender
0.5210000000	off policy
0.5210000000	high speed
0.5210000000	traffic signs
0.5210000000	music transcription
0.5210000000	cost function
0.5210000000	computational resources
0.5210000000	attribute reduction
0.5210000000	driving styles
0.5200000000	clinical practice
0.5200000000	vector space
0.5200000000	norm minimization
0.5200000000	akaike information
0.5200000000	empirical results
0.5200000000	minimum vertex
0.5200000000	drug drug
0.5200000000	e government
0.5200000000	local maxima
0.5200000000	evidential reasoning
0.5200000000	epsilon greedy
0.5200000000	tensor nuclear
0.5200000000	blood cells
0.5190000000	room for improvement
0.5190000000	attracted much attention
0.5190000000	pose graph optimization
0.5190000000	adversarial networks gans
0.5190000000	point spread function
0.5190000000	constraint satisfaction problems
0.5190000000	combinatorial optimization
0.5190000000	experimental evaluations
0.5190000000	pupil detection
0.5190000000	machine comprehension
0.5190000000	genetic algorithm
0.5190000000	intelligent tutoring
0.5190000000	convergence speed
0.5190000000	pairwise comparison
0.5190000000	freely available
0.5190000000	vertex cover
0.5190000000	cluster centers
0.5190000000	unlike previous
0.5190000000	initial guess
0.5190000000	video summarization
0.5180000000	brain tumor segmentation
0.5180000000	head and neck
0.5180000000	symmetric positive definite
0.5180000000	hand gesture recognition
0.5180000000	structured sparsity
0.5180000000	image registration
0.5180000000	code switching
0.5180000000	superior performance
0.5180000000	variable length
0.5180000000	bayesian nonparametric
0.5170000000	visual odometry vo
0.5170000000	human level performance
0.5170000000	integrate and fire
0.5170000000	combinatorial explosion
0.5170000000	l1 regularized
0.5170000000	data set
0.5170000000	step size
0.5170000000	temporal difference
0.5170000000	agglomerative clustering
0.5160000000	gaussian process regression
0.5160000000	significant performance improvements
0.5160000000	frames per second
0.5160000000	best arm identification
0.5160000000	a hot topic
0.5160000000	position and orientation
0.5160000000	over union iou
0.5160000000	long term dependencies
0.5160000000	carried out
0.5160000000	chemical reaction
0.5160000000	york times
0.5160000000	scene text
0.5160000000	piecewise linear
0.5150000000	long short term memory networks
0.5150000000	dynamic time warping dtw
0.5150000000	intrinsic and extrinsic
0.5150000000	mean squared error
0.5150000000	machine intelligence
0.5150000000	machine vision
0.5150000000	macro actions
0.5150000000	near infrared
0.5150000000	reflection symmetry
0.5150000000	dynamic texture
0.5150000000	stopping criterion
0.5140000000	mean absolute error mae
0.5140000000	direct and indirect
0.5140000000	achieved great success
0.5140000000	geometric and photometric
0.5140000000	similarity index ssim
0.5140000000	word sense
0.5140000000	b spline
0.5140000000	egocentric videos
0.5140000000	speckle noise
0.5140000000	case studies
0.5140000000	point set
0.5140000000	augmented naive
0.5140000000	long tailed
0.5140000000	complex valued
0.5140000000	publicly available
0.5140000000	recent work
0.5140000000	latent factors
0.5140000000	tensor singular
0.5140000000	de novo
0.5140000000	well founded
0.5140000000	sequential monte
0.5140000000	video clip
0.5140000000	l evy
0.5130000000	bird s eye view
0.5130000000	2 d complex gabor
0.5130000000	description length mdl principle
0.5130000000	left to right
0.5130000000	multi label classification
0.5130000000	left and right
0.5130000000	mover s distance
0.5130000000	past tense
0.5130000000	widely used
0.5130000000	rotation equivariant
0.5130000000	iteratively reweighted
0.5130000000	situation calculus
0.5130000000	o frac
0.5130000000	r enyi
0.5130000000	doesn t
0.5120000000	advanced driver assistance systems
0.5120000000	proportional conflict redistribution rule
0.5120000000	non maximum suppression
0.5120000000	real world data
0.5120000000	artificial neural network
0.5120000000	a pivotal role
0.5120000000	deep reinforcement
0.5120000000	restricted boltzmann
0.5120000000	learning algorithms
0.5120000000	thermal face
0.5120000000	reaction diffusion
0.5120000000	self organising
0.5120000000	multi target
0.5120000000	training samples
0.5120000000	error rates
0.5120000000	average precision
0.5110000000	cross media retrieval
0.5110000000	clinical trials
0.5110000000	higher level
0.5110000000	event logs
0.5110000000	ray computed
0.5110000000	zero sum
0.5110000000	illustrative examples
0.5110000000	get stuck
0.5110000000	global minima
0.5110000000	proper scoring
0.5110000000	sample size
0.5110000000	significant improvement
0.5110000000	parameter tuning
0.5110000000	age gender
0.5110000000	fall short
0.5110000000	gait recognition
0.5110000000	object categories
0.5110000000	previously published
0.5110000000	logic program
0.5110000000	accurately predict
0.5110000000	vehicle routing
0.5100000000	neuro fuzzy inference system
0.5100000000	semantic textual similarity
0.5100000000	a small number
0.5100000000	the source domain
0.5100000000	noise ratio snr
0.5100000000	a large number
0.5100000000	psnr and ssim
0.5100000000	vector spaces
0.5100000000	p 0.001
0.5100000000	gray box
0.5100000000	penetrating radar
0.5100000000	motion capture
0.5100000000	more accurate
0.5100000000	et al
0.5090000000	youtube 8m video understanding challenge
0.5090000000	generative adversarial networks gan
0.5090000000	automated theorem provers
0.5090000000	full fledged
0.5090000000	riemannian manifold
0.5090000000	outdoor scenes
0.5090000000	time consuming
0.5090000000	synthetic data
0.5090000000	cross view
0.5080000000	deep convolutional neural networks dcnn
0.5080000000	brain computer interfaces
0.5080000000	margin of victory
0.5080000000	dempster s rule
0.5080000000	the low rank
0.5080000000	multiply connected
0.5080000000	horn clauses
0.5080000000	class labels
0.5080000000	residual networks
0.5080000000	non trivial
0.5080000000	middle ground
0.5070000000	preliminary results
0.5070000000	arabic sentiment
0.5070000000	comprehensive experiments
0.5070000000	empirical risk
0.5070000000	doubly stochastic
0.5070000000	weak learners
0.5070000000	f1 scores
0.5070000000	feature representations
0.5060000000	conduct extensive experiments
0.5060000000	license plate recognition
0.5060000000	a wide range
0.5060000000	variational auto encoders
0.5060000000	web site
0.5060000000	ct volumes
0.5060000000	thumos 14
0.5060000000	accelerated proximal
0.5060000000	information granulation
0.5060000000	u net
0.5060000000	real time
0.5060000000	1 ldots
0.5050000000	deep convolutional neural
0.5050000000	an important role
0.5050000000	infrared nir
0.5050000000	locality preserving
0.5050000000	lipschitz continuous
0.5050000000	affine transformations
0.5050000000	line segments
0.5050000000	regular expressions
0.5050000000	association rules
0.5050000000	linear separators
0.5050000000	mit indoor
0.5050000000	computer science
0.5050000000	variable elimination
0.5050000000	french german
0.5050000000	multi level
0.5040000000	part of speech pos tagging
0.5040000000	cpus and gpus
0.5040000000	probabilistic graphical models
0.5040000000	positive semi definite
0.5040000000	distance metric learning
0.5040000000	web sites
0.5040000000	exploration exploitation
0.5040000000	human face
0.5040000000	projected onto
0.5040000000	convolutional layer
0.5040000000	fuzzy automata
0.5030000000	functional magnetic resonance imaging
0.5030000000	mixture of experts
0.5030000000	taken into account
0.5030000000	cause and effect
0.5030000000	significantly faster
0.5030000000	the proposed
0.5030000000	approximate inference
0.5030000000	semantic parsing
0.5030000000	mathematical foundations
0.5030000000	stable models
0.5020000000	frequent itemset mining
0.5020000000	retinal fundus images
0.5020000000	fake news detection
0.5020000000	this paper
0.5020000000	much faster
0.5020000000	commonly used
0.5020000000	great success
0.5020000000	the easiest
0.5020000000	discriminatively trained
0.5020000000	speech enhancement
0.5020000000	back end
0.5020000000	computer vision
0.5020000000	perhaps surprisingly
0.5020000000	non negativity
0.5020000000	alpha expansion
0.5020000000	cross domain
0.5010000000	a necessary and sufficient condition
0.5010000000	the past two decades
0.5010000000	near infrared nir
0.5010000000	collaborative representation based
0.5010000000	convolutional neural nets
0.5010000000	higher dimensional
0.5010000000	left right
0.5010000000	liver lesion
0.5010000000	disentangled representations
0.5010000000	sign language
0.5010000000	tighter bounds
0.5000000000	under consideration for acceptance in tplp
0.5000000000	part of speech tagger
0.5000000000	android malware detection
0.5000000000	protein structure prediction
0.5000000000	specially designed
0.5000000000	seeded region
0.5000000000	mpeg 7
0.5000000000	policy iteration
0.5000000000	low resource
0.5000000000	label propagation
0.5000000000	disease progression
0.5000000000	logical forms
0.5000000000	fuzzy inference
0.4990000000	gaussian graphical models
0.4990000000	partial differential equation
0.4990000000	question answering qa
0.4990000000	user friendly
0.4990000000	the number
0.4990000000	age groups
0.4990000000	loosely coupled
0.4990000000	landmark localization
0.4980000000	maximum inner product search
0.4980000000	chemical reaction optimization
0.4980000000	skin lesion segmentation
0.4980000000	game playing
0.4980000000	cancer cell
0.4980000000	t1 weighted
0.4980000000	strongly correlated
0.4980000000	the monte
0.4980000000	discourse connectives
0.4980000000	path integral
0.4980000000	dna sequences
0.4980000000	graph cuts
0.4980000000	better suited
0.4980000000	cluttered background
0.4980000000	random dot
0.4970000000	recurrent neural networks rnn
0.4970000000	remote sensing images
0.4970000000	the proposed algorithm
0.4970000000	answer set
0.4970000000	coherence tomography
0.4970000000	third party
0.4970000000	salesperson problem
0.4970000000	air traffic
0.4970000000	binary hash
0.4970000000	hyper spectral
0.4970000000	based image
0.4970000000	probabilistic logic
0.4960000000	industry and academia
0.4960000000	multi object tracking
0.4960000000	radon transform
0.4960000000	spanning tree
0.4960000000	a posteriori
0.4950000000	gatys et al
0.4950000000	devnagari character recognition
0.4950000000	among other things
0.4950000000	a special case
0.4950000000	spoken dialogue systems
0.4950000000	interior point
0.4950000000	trust region
0.4950000000	association rule
0.4950000000	more efficient
0.4950000000	lesion segmentation
0.4950000000	robust subspace
0.4950000000	in spite
0.4940000000	a challenging problem
0.4940000000	highly correlated
0.4940000000	disjunctive logic
0.4940000000	different kinds
0.4940000000	image matting
0.4940000000	deep neural
0.4940000000	novelty search
0.4940000000	undirected graphs
0.4940000000	topic models
0.4940000000	membership queries
0.4940000000	non gaussianity
0.4940000000	document collections
0.4940000000	a monte
0.4930000000	attention based neural machine
0.4930000000	belief propagation bp
0.4930000000	the mutual information
0.4930000000	game of go
0.4930000000	nouns and verbs
0.4930000000	state space models
0.4930000000	functional magnetic resonance
0.4930000000	as opposed
0.4930000000	matrix approximation
0.4930000000	using monte
0.4930000000	shadow detection
0.4930000000	quantum annealing
0.4930000000	numerical examples
0.4930000000	tumor core
0.4930000000	lenet 5
0.4930000000	sublinear regret
0.4920000000	multi instance multi label
0.4920000000	remote sensing image
0.4920000000	image enhancement
0.4920000000	two kinds
0.4920000000	the problem
0.4920000000	surrogate assisted
0.4920000000	self concordant
0.4920000000	dialogue response
0.4920000000	target data
0.4920000000	gaussian graphical
0.4920000000	geared towards
0.4920000000	movie ratings
0.4910000000	deep convolutional neural network dcnn
0.4910000000	an end to end
0.4910000000	a daily basis
0.4910000000	recognition rate
0.4910000000	otb 2015
0.4910000000	chordal graphs
0.4910000000	ordinal regression
0.4910000000	belief change
0.4910000000	text summarization
0.4910000000	patch wise
0.4910000000	a handful
0.4910000000	a multitude
0.4910000000	a plethora
0.4900000000	machine reading comprehension
0.4900000000	structured prediction
0.4900000000	3d shape
0.4900000000	factors affecting
0.4900000000	derivative free
0.4900000000	most existing
0.4900000000	inductive bias
0.4900000000	light fields
0.4900000000	latent feature
0.4900000000	training set
0.4900000000	passive aggressive
0.4900000000	fetal mri
0.4900000000	movie reviews
0.4890000000	pascal voc 2007 and 2012
0.4890000000	handwritten chinese character
0.4890000000	mixed integer
0.4890000000	frontal face
0.4890000000	pac bayesian
0.4890000000	surrogate loss
0.4890000000	resource poor
0.4880000000	mean square error rmse
0.4880000000	learning machine elm
0.4880000000	much smaller
0.4880000000	for monte
0.4880000000	dissimilarity measures
0.4880000000	bipartite graph
0.4880000000	stereo matching
0.4880000000	facility location
0.4880000000	various kinds
0.4880000000	fisher vectors
0.4880000000	video object
0.4880000000	blind compressed
0.4870000000	the ell 1
0.4870000000	likelihood estimation mle
0.4870000000	vanishing and exploding
0.4870000000	the other hand
0.4870000000	to speech tts
0.4870000000	online mirror
0.4870000000	search space
0.4870000000	put forth
0.4870000000	treatment regimes
0.4870000000	min cut
0.4870000000	de facto
0.4870000000	teacher student
0.4860000000	sparse representation
0.4860000000	bottom up
0.4860000000	cnn architectures
0.4860000000	more robust
0.4860000000	top down
0.4860000000	neuromorphic computing
0.4860000000	de raining
0.4860000000	finite state
0.4860000000	object proposal
0.4860000000	pseudo likelihood
0.4850000000	positive negative or neutral
0.4850000000	the generalization error
0.4850000000	visual place recognition
0.4850000000	read and write
0.4850000000	challenges and opportunities
0.4850000000	face sketch
0.4850000000	causal effects
0.4850000000	classification problems
0.4840000000	negative matrix factorization nmf
0.4840000000	long short term
0.4840000000	a unified framework
0.4840000000	pc id
0.4840000000	matrix multiplication
0.4840000000	discourse relations
0.4840000000	fractal descriptors
0.4840000000	associative memory
0.4840000000	default reasoning
0.4840000000	tikhonov regularization
0.4840000000	hierarchical agglomerative
0.4840000000	non linearities
0.4840000000	randomly sampled
0.4840000000	multiple instance
0.4830000000	law of large numbers
0.4830000000	fuzzy set theory
0.4830000000	rank representation lrr
0.4830000000	multi view learning
0.4830000000	false detections
0.4830000000	body part
0.4820000000	shrinkage and selection operator
0.4820000000	the proposed method
0.4820000000	user preferences
0.4820000000	wavelet packet
0.4820000000	quantile regression
0.4820000000	skin color
0.4820000000	life sciences
0.4820000000	non intrusive
0.4810000000	sp theory of intelligence
0.4810000000	hidden markov models hmm
0.4810000000	normal and abnormal
0.4810000000	event stream
0.4810000000	voting rules
0.4810000000	prisoner s
0.4810000000	human readable
0.4810000000	sat instances
0.4810000000	human action
0.4810000000	o n
0.4810000000	carlo integration
0.4800000000	blur kernel
0.4800000000	ocr engine
0.4800000000	spoken dialogue
0.4800000000	crowdsourcing platforms
0.4800000000	converges linearly
0.4790000000	latent variable graphical model selection via
0.4790000000	cifar and imagenet
0.4790000000	loop closure detection
0.4790000000	additive white gaussian
0.4790000000	mixed reality
0.4790000000	active learning
0.4790000000	td 0
0.4790000000	human pose
0.4790000000	latent confounders
0.4790000000	100 000
0.4790000000	year period
0.4780000000	vulnerable to adversarial examples
0.4780000000	conclude by discussing
0.4780000000	recurrent units gru
0.4780000000	departing from
0.4780000000	discourse parsing
0.4780000000	hash functions
0.4780000000	human observers
0.4780000000	quantum physics
0.4780000000	whole genome
0.4770000000	cifar 10 cifar 100 and svhn
0.4770000000	localization and mapping slam
0.4770000000	hyper parameter tuning
0.4770000000	feature selection methods
0.4770000000	shop scheduling problem
0.4770000000	image restoration
0.4770000000	visual question
0.4770000000	visual attention
0.4770000000	dictionary learning
0.4770000000	evolutionary algorithms
0.4770000000	quantum computers
0.4770000000	without compromising
0.4760000000	english french
0.4760000000	face aging
0.4760000000	dictionary atoms
0.4760000000	ipc 4
0.4760000000	deformation diffeomorphic
0.4750000000	entity recognition ner
0.4750000000	black and white
0.4750000000	online convex optimization
0.4750000000	frequency cepstral coefficients
0.4750000000	recognition accuracy
0.4750000000	genetic algorithms
0.4750000000	analogical reasoning
0.4750000000	random fields
0.4750000000	neural programmer
0.4750000000	metric learning
0.4740000000	end to end trainable
0.4740000000	graphics processing unit gpu
0.4740000000	mean square error mse
0.4740000000	web ontology language owl
0.4740000000	artificial neural networks ann
0.4740000000	symmetry breaking constraints
0.4740000000	lstm and gru
0.4740000000	knowledge graph
0.4740000000	mathbb z
0.4740000000	randomly chosen
0.4740000000	cross media
0.4740000000	fundus images
0.4730000000	a dedicated expectation maximization em algorithm
0.4730000000	alternating direction method of multipliers admm
0.4730000000	last but not least
0.4730000000	finite state automata
0.4730000000	day by day
0.4730000000	pick and place
0.4730000000	o log n
0.4730000000	stochastic variational inference
0.4730000000	line of sight
0.4730000000	highly accurate
0.4730000000	median filter
0.4730000000	time lapse
0.4730000000	interest roi
0.4720000000	primal and dual
0.4720000000	dempster shafer clustering
0.4720000000	additive and multiplicative
0.4720000000	task oriented dialogue
0.4720000000	concept analysis fca
0.4720000000	base learners
0.4720000000	visual saliency
0.4720000000	pairwise similarities
0.4710000000	bag of visual words
0.4710000000	phase and amplitude
0.4710000000	mini batch size
0.4710000000	adaptive neuro
0.4710000000	image reconstruction
0.4710000000	max flow
0.4710000000	polynomial threshold
0.4710000000	voting rule
0.4710000000	complex gabor
0.4710000000	residual network
0.4710000000	departs from
0.4710000000	year old
0.4700000000	short term and long
0.4700000000	model free and model
0.4700000000	sparse signal
0.4700000000	argumentation semantics
0.4700000000	isbi 2017
0.4700000000	multimodal sentiment
0.4700000000	rl agents
0.4700000000	residual blocks
0.4700000000	temporal receptive
0.4700000000	rapid progress
0.4690000000	the performance of
0.4690000000	day to day
0.4690000000	stein variational gradient
0.4690000000	the one hand
0.4690000000	minimum spanning tree
0.4690000000	knowledge based
0.4690000000	mutation operators
0.4690000000	sentiment lexicons
0.4690000000	value iteration
0.4680000000	regions of interest rois
0.4680000000	skeleton based action
0.4680000000	science and engineering
0.4680000000	implicit or explicit
0.4680000000	the convergence rate
0.4680000000	lossy image compression
0.4680000000	lessons learned
0.4680000000	visual object
0.4680000000	successfully applied
0.4680000000	rotation invariant
0.4680000000	hankel matrix
0.4680000000	hidden layer
0.4680000000	local feature
0.4680000000	geodesic distances
0.4680000000	spoken dialog
0.4680000000	segmental models
0.4680000000	o nr
0.4680000000	belief functions
0.4680000000	carlo simulations
0.4680000000	lifted probabilistic
0.4670000000	peak signal to noise
0.4670000000	aspect based sentiment
0.4670000000	existence and uniqueness
0.4670000000	weighted majority voting
0.4670000000	mutation and crossover
0.4670000000	shown promising results
0.4670000000	image compression
0.4670000000	due to
0.4670000000	change point
0.4670000000	protein interaction
0.4670000000	protein structure
0.4670000000	personal assistant
0.4670000000	soft margin
0.4670000000	icdar 2013
0.4670000000	probabilistic programming
0.4660000000	trained end to end
0.4660000000	the source and target
0.4660000000	speech to text
0.4660000000	explicit and implicit
0.4660000000	opportunities and challenges
0.4660000000	words and phrases
0.4660000000	the number of
0.4660000000	before and after
0.4660000000	k nn
0.4660000000	online advertising
0.4660000000	l1 regularization
0.4660000000	kernel density
0.4650000000	to appear in theory and
0.4650000000	mathbb r n
0.4650000000	stock market prediction
0.4650000000	graph structured data
0.4650000000	the nystr om
0.4650000000	takes into account
0.4650000000	word level
0.4650000000	floor plan
0.4650000000	surrogate losses
0.4650000000	motion estimation
0.4650000000	human rights
0.4650000000	class imbalance
0.4640000000	integrate and fire neurons
0.4640000000	software quality in use
0.4640000000	knowledge representation and reasoning
0.4640000000	context free grammar
0.4640000000	field of view
0.4640000000	directed acyclic graph
0.4640000000	fisher vector encoding
0.4640000000	pseudo boolean constraints
0.4640000000	robotic grasping
0.4640000000	unseen classes
0.4640000000	cloze style
0.4640000000	intra class
0.4640000000	lasso penalty
0.4640000000	time stamped
0.4640000000	adversarial perturbation
0.4640000000	does not
0.4630000000	parametric and non parametric
0.4630000000	if and only if
0.4630000000	rigid and non rigid
0.4630000000	frame by frame
0.4630000000	internal and external
0.4630000000	precision recall curve
0.4630000000	visual object tracking
0.4630000000	chinese restaurant process
0.4630000000	proof of concept
0.4630000000	fast and accurate
0.4630000000	voc 2007
0.4630000000	global optima
0.4630000000	adversarial imitation
0.4620000000	entities and relations
0.4620000000	remote sensing imagery
0.4620000000	bounding box annotations
0.4620000000	back and forth
0.4620000000	sparse linear
0.4620000000	oct images
0.4620000000	tensor recovery
0.4620000000	multiple kernel
0.4610000000	o n log n
0.4610000000	weighted nuclear norm minimization
0.4610000000	radial distortion model
0.4610000000	external and internal
0.4610000000	query by example
0.4610000000	deep residual networks
0.4610000000	left frac
0.4610000000	bat algorithm
0.4610000000	normalized cut
0.4610000000	defeasible logic
0.4610000000	conformal prediction
0.4610000000	rather than
0.4610000000	discriminant analysis
0.4610000000	riemannian geometry
0.4610000000	canonical correlation
0.4600000000	named entity disambiguation
0.4600000000	optical flow estimation
0.4600000000	pixel by pixel
0.4600000000	structure from motion
0.4600000000	spatial and temporal
0.4600000000	zero pronoun
0.4600000000	so far
0.4600000000	max norm
0.4600000000	wireless communication
0.4600000000	euclidean spaces
0.4590000000	end to end deep neural
0.4590000000	cifar 10 and svhn
0.4590000000	boolean satisfiability sat
0.4590000000	discrete and continuous
0.4590000000	q network dqn
0.4590000000	start and end
0.4590000000	static and dynamic
0.4590000000	much larger
0.4590000000	deformable registration
0.4590000000	linear function
0.4590000000	multi party
0.4590000000	common sense
0.4590000000	well behaved
0.4580000000	the size of
0.4580000000	levels of abstraction
0.4580000000	global and local
0.4580000000	local and global
0.4580000000	rough set theory
0.4580000000	surface normal
0.4580000000	multiobjective optimization
0.4580000000	hand held
0.4580000000	asynchronous parallel
0.4580000000	breast lesions
0.4580000000	kernel ridge
0.4580000000	isic 2017
0.4580000000	without losing
0.4580000000	fuzzy rule
0.4570000000	sheds new light on
0.4570000000	actor critic methods
0.4570000000	mathcal o n
0.4570000000	data to text
0.4570000000	random forest rf
0.4570000000	wise relevance propagation
0.4570000000	group sparsity residual
0.4570000000	spatially and temporally
0.4570000000	training and testing
0.4570000000	research and development
0.4570000000	affine transformation
0.4570000000	conceptually simple
0.4570000000	ancestral graphs
0.4570000000	an image
0.4570000000	missing values
0.4570000000	text mining
0.4560000000	orders of magnitude faster
0.4560000000	abstract meaning representation
0.4560000000	the sample complexity
0.4560000000	continuous max flow
0.4560000000	graphics processing unit
0.4560000000	chinese english
0.4560000000	alternating direction
0.4560000000	hyper parameter
0.4560000000	equivalence class
0.4560000000	template matching
0.4560000000	compression ratio
0.4560000000	conversational speech
0.4560000000	semeval 2010
0.4560000000	life cycle
0.4560000000	bi modal
0.4560000000	gaze estimation
0.4560000000	monocular depth
0.4550000000	balance between exploration and exploitation
0.4550000000	observable markov decision processes pomdps
0.4550000000	designing and implementing
0.4550000000	the upper bound
0.4550000000	solvable in polynomial
0.4550000000	capable of dealing
0.4550000000	the rate of
0.4550000000	regression and classification
0.4550000000	unsupervised pre training
0.4550000000	regret minimization
0.4550000000	backward propagation
0.4550000000	autonomous vehicle
0.4550000000	pivot language
0.4540000000	source of information
0.4540000000	neural language models
0.4540000000	the use of
0.4540000000	human annotators
0.4540000000	spectral graph
0.4540000000	handwriting recognition
0.4530000000	a deep convolutional neural network
0.4530000000	image super resolution sr
0.4530000000	the probability distribution
0.4530000000	magnetic resonance images
0.4530000000	drawing inspiration from
0.4530000000	generator and discriminator
0.4530000000	multi subject fmri
0.4530000000	processing units gpus
0.4530000000	paragraph vectors
0.4530000000	image quality
0.4530000000	feature extractor
0.4530000000	safety critical
0.4530000000	ear images
0.4530000000	multiple views
0.4520000000	cifar 10 cifar 100 and imagenet
0.4520000000	semantic image segmentation
0.4520000000	vehicle routing problem
0.4520000000	weights and activations
0.4520000000	sample complexity bounds
0.4520000000	value decomposition svd
0.4520000000	english and german
0.4520000000	concave convex procedure
0.4520000000	malware detection
0.4520000000	revision operator
0.4520000000	rbf kernel
0.4520000000	kernel hilbert
0.4520000000	studied extensively
0.4520000000	edge preserving
0.4520000000	population diversity
0.4520000000	camera trap
0.4520000000	text classification
0.4520000000	cross layer
0.4520000000	road traffic
0.4520000000	carlo simulation
0.4510000000	synthetic as well as real
0.4510000000	kullback leibler kl divergence
0.4510000000	fine grained image classification
0.4510000000	baum welch algorithm
0.4510000000	lidc idri dataset
0.4510000000	laplace beltrami operator
0.4510000000	strong equivalence
0.4510000000	speech separation
0.4510000000	implicit feedback
0.4510000000	computational linguistics
0.4510000000	o n2
0.4510000000	ai safety
0.4510000000	anchor points
0.4500000000	visual and textual
0.4500000000	the state of
0.4500000000	the problem of
0.4500000000	logarithmic factors
0.4500000000	pos tag
0.4500000000	inverse covariance
0.4500000000	low latency
0.4500000000	syntactic parsing
0.4500000000	exhaustive search
0.4490000000	the quality of
0.4490000000	large deformation diffeomorphic
0.4490000000	ls svm
0.4490000000	artificial neural
0.4490000000	domain adaption
0.4490000000	mixture models
0.4490000000	memory consumption
0.4490000000	graphical models
0.4490000000	explainable ai
0.4490000000	ell 1
0.4490000000	conditional mutual
0.4490000000	o kn
0.4490000000	rank aggregation
0.4490000000	spiking neural
0.4480000000	genetic programming gp
0.4480000000	tilde o sqrt
0.4480000000	the proposed approach
0.4480000000	o sqrt t
0.4480000000	multilayer perceptron mlp
0.4480000000	web usage
0.4480000000	haze free
0.4480000000	visual inertial
0.4480000000	capitalizes on
0.4480000000	international conference
0.4480000000	script identification
0.4480000000	quantum computing
0.4480000000	character level
0.4480000000	shift invariant
0.4480000000	nss prior
0.4480000000	fisher vector
0.4470000000	cardiac magnetic resonance
0.4470000000	electron microscopy em
0.4470000000	multiple instance learning
0.4470000000	correlation analysis cca
0.4470000000	cross modal hashing
0.4470000000	nearest neighbor search
0.4470000000	direct torque
0.4470000000	nomination scheme
0.4470000000	infrared gray
0.4470000000	torque control
0.4470000000	fringe patterns
0.4470000000	shutter camera
0.4470000000	bone age
0.4470000000	mu lambda
0.4470000000	pet ct
0.4470000000	pet scan
0.4470000000	query containment
0.4470000000	color channels
0.4470000000	partial maxsat
0.4470000000	privacy protection
0.4470000000	singular vectors
0.4470000000	age group
0.4470000000	dice score
0.4470000000	abc boost
0.4470000000	app usage
0.4470000000	ci statements
0.4470000000	hyperspectral images
0.4470000000	white blood
0.4460000000	scene flow estimation
0.4460000000	compressive sensing cs
0.4460000000	high resolution images
0.4460000000	spiking neural networks
0.4460000000	stochastic variational
0.4460000000	single objective
0.4460000000	perceptron mlp
0.4460000000	phd filter
0.4460000000	sleep stages
0.4460000000	inconsistency indices
0.4460000000	undesired edges
0.4460000000	diffeomorphic metric
0.4460000000	owl ontologies
0.4460000000	embedding lle
0.4460000000	color spaces
0.4460000000	fetal brain
0.4460000000	bangla characters
0.4460000000	perform poorly
0.4460000000	dr submodular
0.4450000000	expensive and time consuming
0.4450000000	sparse group lasso
0.4450000000	takes as input
0.4450000000	self organizing maps
0.4450000000	polynomial threshold functions
0.4450000000	partial monitoring games
0.4450000000	sentence simplification
0.4450000000	triplet loss
0.4450000000	conjugate priors
0.4450000000	public mood
0.4450000000	high dimensions
0.4450000000	homology groups
0.4450000000	tail bounds
0.4450000000	sentiment classification
0.4450000000	privacy guarantees
0.4450000000	quantum inspired
0.4440000000	clustering categorical data
0.4440000000	visual semantic mapping
0.4440000000	the indian buffet
0.4440000000	traveling salesperson problem
0.4440000000	robust subspace recovery
0.4440000000	single label classification
0.4440000000	multi target tracking
0.4440000000	event based cameras
0.4440000000	generalized eigenvalue problem
0.4440000000	pure strategy
0.4440000000	3d reconstruction
0.4440000000	possibility theory
0.4440000000	mimic iii
0.4440000000	multi document
0.4440000000	adversarial attack
0.4430000000	mobile visual search
0.4430000000	temporal action localization
0.4430000000	scene text detection
0.4430000000	block sparse signals
0.4430000000	vertex cover problem
0.4430000000	web ontology language
0.4430000000	cnf formula
0.4430000000	plan libraries
0.4430000000	enhancing tumor
0.4430000000	big data
0.4430000000	discourse treebank
0.4430000000	partial order
0.4430000000	kernel herding
0.4430000000	data assimilation
0.4430000000	data mining
0.4430000000	ensemble teachers
0.4430000000	variational dropout
0.4420000000	multi person pose estimation
0.4420000000	seen and unseen classes
0.4420000000	reference image quality assessment
0.4420000000	statistical parametric speech
0.4420000000	deep supervised hashing
0.4420000000	deep hashing methods
0.4420000000	error correcting output
0.4420000000	network design problem
0.4420000000	cross layer optimization
0.4420000000	image instance retrieval
0.4420000000	quadratic programming problem
0.4420000000	point set registration
0.4420000000	single hidden layer
0.4420000000	spike train
0.4420000000	hitting times
0.4420000000	image captioning
0.4420000000	operator valued
0.4420000000	avoid overfitting
0.4420000000	owl ontology
0.4420000000	artifact removal
0.4420000000	grammar induction
0.4420000000	hyper parameters
0.4420000000	generally applicable
0.4420000000	belief networks
0.4420000000	phrase alignments
0.4420000000	digit recognition
0.4410000000	images using convolutional neural
0.4410000000	light field cameras
0.4410000000	multi agent systems
0.4410000000	online linear optimization
0.4410000000	ct reconstruction
0.4410000000	word meanings
0.4410000000	credit risk
0.4410000000	sequence learning
0.4410000000	neutrosophic logic
0.4410000000	mel filter
0.4410000000	event coreference
0.4410000000	green energy
0.4410000000	foreground objects
0.4410000000	categorical compositional
0.4410000000	pdm systems
0.4410000000	query expansion
0.4410000000	hash function
0.4410000000	equivalence classes
0.4410000000	adaptation da
0.4410000000	clothing fashion
0.4410000000	spoken content
0.4410000000	tumor growth
0.4410000000	appearance variations
0.4410000000	gaussian copula
0.4410000000	without sacrificing
0.4400000000	loopy belief propagation lbp
0.4400000000	complete domain models
0.4400000000	k nearest neighbors
0.4400000000	universal adversarial perturbations
0.4400000000	sparsity inducing penalties
0.4400000000	wide ranging
0.4400000000	2nd place
0.4400000000	gray level
0.4400000000	ray ct
0.4400000000	satisfiability modulo
0.4400000000	the crux
0.4400000000	snp systems
0.4400000000	rule lists
0.4400000000	poly log
0.4400000000	surgical instruments
0.4400000000	apprenticeship learning
0.4400000000	squares irls
0.4400000000	robust logitboost
0.4400000000	crowd count
0.4400000000	instrumental variables
0.4400000000	projected gradient
0.4400000000	brain decoding
0.4400000000	medical images
0.4400000000	relu nets
0.4400000000	in lieu
0.4400000000	rgb d
0.4390000000	micro expression recognition
0.4390000000	simple type theory
0.4390000000	structural similarity index
0.4390000000	cross source point
0.4390000000	p and q
0.4390000000	twin support
0.4390000000	moving window
0.4390000000	offline signature
0.4390000000	long tail
0.4390000000	semantic web
0.4390000000	kernel pca
0.4390000000	conflict redistribution
0.4390000000	propensity score
0.4390000000	stark contrast
0.4380000000	deep convolutional neural networks cnn
0.4380000000	decision support systems
0.4380000000	bayesian network structures
0.4380000000	the source and
0.4380000000	high angular resolution
0.4380000000	neural translation models
0.4380000000	metropolis hastings algorithm
0.4380000000	degrees of belief
0.4380000000	short term memory
0.4380000000	unseen categories
0.4380000000	best suited
0.4380000000	visual dialog
0.4380000000	deep feature
0.4380000000	deep residual
0.4380000000	odometry vo
0.4380000000	utmost importance
0.4380000000	closure operator
0.4380000000	descent gd
0.4380000000	connected subgraphs
0.4380000000	spam filtering
0.4380000000	exact recovery
0.4380000000	flow shop
0.4380000000	carlo mc
0.4380000000	connectionist temporal
0.4380000000	fuzzy answer
0.4370000000	synthetic and real world data
0.4370000000	multi view representation learning
0.4370000000	high order interaction features
0.4370000000	instance level object segmentation
0.4370000000	open space area
0.4370000000	unsupervised feature learning
0.4370000000	compact closed categories
0.4370000000	mikolov et al
0.4370000000	relying solely on
0.4370000000	statistical learning theory
0.4370000000	a brief overview
0.4370000000	low level features
0.4370000000	answer questions
0.4370000000	extrinsic calibration
0.4370000000	disjunctive programs
0.4370000000	driver assistance
0.4370000000	l1 l2
0.4370000000	region growing
0.4370000000	standard deviation
0.4370000000	discourse coherence
0.4370000000	discourse parser
0.4370000000	spectrum sensing
0.4370000000	stratified sampling
0.4370000000	voice conversion
0.4370000000	selection pressure
0.4370000000	log log
0.4370000000	shdl network
0.4370000000	loop formulas
0.4370000000	depending upon
0.4370000000	gp regression
0.4360000000	real world data sets
0.4360000000	cifar 10 and imagenet
0.4360000000	effectiveness and efficiency
0.4360000000	representation based classification
0.4360000000	multiple criteria decision
0.4360000000	simulated annealing sa
0.4360000000	batch normalization bn
0.4360000000	image quality assessment
0.4360000000	molecular biology
0.4360000000	convex concave
0.4360000000	image level
0.4360000000	epileptic patients
0.4360000000	covariance matrix
0.4360000000	beta divergence
0.4360000000	online convex
0.4360000000	early diagnosis
0.4360000000	class imbalanced
0.4360000000	distance measures
0.4360000000	indian language
0.4360000000	mean shift
0.4360000000	default negation
0.4360000000	imitation learning
0.4360000000	medical image
0.4350000000	natural language processing tasks
0.4350000000	well founded semantics
0.4350000000	significant performance improvement
0.4350000000	closed form expressions
0.4350000000	deep belief networks
0.4350000000	gaussian mixture models
0.4350000000	spoken language understanding
0.4350000000	word vector
0.4350000000	heterogeneous face
0.4350000000	supervoxel segmentation
0.4350000000	canny edge
0.4350000000	music composition
0.4350000000	restricted isometry
0.4350000000	strategic regret
0.4350000000	loopy belief
0.4350000000	microarray gene
0.4350000000	missing mass
0.4350000000	blood vessel
0.4340000000	imagenet large scale visual recognition
0.4340000000	evolution strategy cma es
0.4340000000	partial differential equation pde
0.4340000000	recognizing textual entailment
0.4340000000	vocabulary oov words
0.4340000000	convolutional auto encoder
0.4340000000	particle swarm optimisation
0.4340000000	american sign
0.4340000000	aperture radar
0.4340000000	arabic morphological
0.4340000000	kaczmarz algorithm
0.4340000000	raw waveforms
0.4340000000	extended yale
0.4340000000	arc length
0.4340000000	revision operators
0.4340000000	product quantization
0.4340000000	polylog n
0.4340000000	adjoining grammars
0.4340000000	8m video
0.4340000000	aesthetic score
0.4340000000	annealed importance
0.4340000000	motion features
0.4340000000	discount factor
0.4340000000	google street
0.4340000000	pointwise mutual
0.4340000000	compact closed
0.4340000000	sun rgb
0.4340000000	speaker dependent
0.4340000000	ds theory
0.4340000000	openly available
0.4340000000	vocabulary oov
0.4340000000	cell counting
0.4340000000	sqrt n
0.4340000000	graph signals
0.4340000000	cognitive radar
0.4340000000	daily living
0.4340000000	handwritten signature
0.4340000000	link prediction
0.4340000000	text detection
0.4340000000	non linearity
0.4340000000	document summarization
0.4330000000	discrete cosine transform dct
0.4330000000	feed forward neural networks
0.4330000000	video based face recognition
0.4330000000	restricted isometry property
0.4330000000	depends heavily on
0.4330000000	temporal action detection
0.4330000000	blood vessel segmentation
0.4330000000	least mean square
0.4330000000	closed form solutions
0.4330000000	combinatorial multi armed
0.4330000000	armed bandit problem
0.4330000000	item response theory
0.4330000000	cause of death
0.4330000000	benchmark datasets demonstrate
0.4330000000	bayesian optimization bo
0.4330000000	bandit convex
0.4330000000	face super
0.4330000000	image set
0.4330000000	fish school
0.4330000000	ultra high
0.4330000000	process models
0.4330000000	resourced languages
0.4330000000	color histogram
0.4330000000	inversely proportional
0.4330000000	quantum reinforcement
0.4330000000	quantum computation
0.4330000000	sqrt epsilon
0.4330000000	performs favorably
0.4330000000	clickbait detection
0.4330000000	memetic algorithm
0.4330000000	error correction
0.4330000000	technological advances
0.4330000000	hyperparameter optimization
0.4320000000	the gaussian process latent variable
0.4320000000	partially observable markov decision
0.4320000000	multi armed bandit problem
0.4320000000	generative adversarial network gan
0.4320000000	sequence to sequence models
0.4320000000	non convex optimization
0.4320000000	information granulation theory
0.4320000000	high spatial resolution
0.4320000000	the cyborg astrobiologist
0.4320000000	markov logic networks
0.4320000000	web data
0.4320000000	correlation screening
0.4320000000	expressive power
0.4320000000	hilbert space
0.4320000000	machine teaching
0.4320000000	point process
0.4320000000	plan execution
0.4320000000	planted partition
0.4320000000	annotated corpora
0.4320000000	titan x
0.4320000000	attention maps
0.4320000000	dominated sorting
0.4320000000	cardiac magnetic
0.4320000000	computational overhead
0.4320000000	vast quantities
0.4320000000	video surveillance
0.4320000000	carlo methods
0.4310000000	convolutional long short term
0.4310000000	machine translation nmt models
0.4310000000	mnist handwritten digits
0.4310000000	generalized linear models
0.4310000000	change point detection
0.4310000000	visual recognition tasks
0.4310000000	multi camera tracking
0.4310000000	structural equation models
0.4310000000	time of flight
0.4310000000	multiple context free
0.4310000000	single objective optimization
0.4310000000	the nuclear norm
0.4310000000	bi directional lstm
0.4310000000	ratio snr
0.4310000000	capitalize on
0.4310000000	qa systems
0.4310000000	frequent patterns
0.4310000000	urban land
0.4310000000	discourse structure
0.4310000000	built upon
0.4310000000	handcrafted features
0.4310000000	inertial navigation
0.4310000000	latent fingerprint
0.4310000000	tv series
0.4310000000	hex programs
0.4310000000	neural translation
0.4310000000	randomly initialized
0.4300000000	deep convolutional neural networks cnns
0.4300000000	deep fully convolutional neural
0.4300000000	resource description framework
0.4300000000	gaussian markov random
0.4300000000	retinal vessel segmentation
0.4300000000	region growing algorithm
0.4300000000	stochastic multi armed
0.4300000000	block sparse bayesian
0.4300000000	medical image analysis
0.4300000000	land cover mapping
0.4300000000	extensive experiments demonstrate
0.4300000000	fully convolutional networks
0.4300000000	shown great potential
0.4300000000	fully convolutional network
0.4300000000	web search engine
0.4300000000	haar wavelet transform
0.4300000000	content based image
0.4300000000	clinical trial
0.4300000000	curve auc
0.4300000000	resolution images
0.4300000000	statistical shape
0.4300000000	domain ontology
0.4300000000	oriented dialog
0.4300000000	matrix recovery
0.4300000000	coordinate ascent
0.4300000000	inter annotator
0.4300000000	linear algebra
0.4300000000	open set
0.4300000000	global constraint
0.4300000000	programmable gate
0.4300000000	coordination games
0.4300000000	business process
0.4300000000	nonzero entries
0.4300000000	nonconvex penalties
0.4300000000	seizure detection
0.4300000000	plausibility measures
0.4300000000	entity resolution
0.4300000000	rectifier networks
0.4300000000	carlo tree
0.4300000000	update rules
0.4300000000	probability answer
0.4300000000	markovian rewards
0.4290000000	principle component analysis pca
0.4290000000	bayesian network structure learning
0.4290000000	gene expression data
0.4290000000	black box optimization
0.4290000000	a generative model
0.4290000000	generalization error bounds
0.4290000000	semi definite programming
0.4290000000	low resource languages
0.4290000000	spike sorting
0.4290000000	dependency graph
0.4290000000	denial of
0.4290000000	phylogenetic trees
0.4290000000	information theoretic
0.4290000000	discourse relation
0.4290000000	paucity of
0.4290000000	fashion trends
0.4290000000	general video
0.4290000000	pedestrian attribute
0.4290000000	cloud computing
0.4290000000	false negative
0.4290000000	clustering results
0.4290000000	mutual information
0.4290000000	data augmentation
0.4290000000	sample covariance
0.4290000000	based face
0.4290000000	conjunctive normal
0.4290000000	conversational ai
0.4290000000	dynamical systems
0.4290000000	quantized weights
0.4290000000	l infty
0.4290000000	label fusion
0.4290000000	fuzzy clustering
0.4290000000	unlabeled data
0.4290000000	texture descriptors
0.4290000000	blood flow
0.4280000000	symmetric positive definite spd
0.4280000000	travelling salesman problem
0.4280000000	stacked denoising autoencoders
0.4280000000	cost sensitive classification
0.4280000000	false positive rate
0.4280000000	driver assistance systems
0.4280000000	genome wide association
0.4280000000	pac bayesian analysis
0.4280000000	starting point
0.4280000000	comply with
0.4280000000	generative models
0.4280000000	plan recognition
0.4280000000	supervised learning
0.4280000000	scale space
0.4280000000	image caption
0.4280000000	logo detection
0.4280000000	acoustic word
0.4280000000	building block
0.4280000000	deep supervised
0.4280000000	noun pairs
0.4280000000	bibliographic information
0.4280000000	sum product
0.4280000000	stein kernel
0.4280000000	digital circuits
0.4280000000	world optimization
0.4280000000	dynamic neural
0.4280000000	skin detection
0.4280000000	video super
0.4280000000	scene flow
0.4270000000	single image super resolution sr
0.4270000000	high angular resolution diffusion
0.4270000000	principal components analysis pca
0.4270000000	robust principal component
0.4270000000	hidden logistic process
0.4270000000	distributed constraint optimization
0.4270000000	deep generative models
0.4270000000	machine learning algorithms
0.4270000000	deep convolutional networks
0.4270000000	concave saddle point
0.4270000000	markov decision process
0.4270000000	arabic handwriting
0.4270000000	powerful tools
0.4270000000	facial action
0.4270000000	network embedding
0.4270000000	generate adversarial
0.4270000000	blocking artifacts
0.4270000000	negative matrix
0.4270000000	hashing methods
0.4270000000	unknown unknowns
0.4270000000	statistical physics
0.4270000000	statistical pattern
0.4270000000	max product
0.4270000000	frontal view
0.4270000000	attentional encoder
0.4270000000	joint detection
0.4270000000	information retrieval
0.4270000000	level object
0.4270000000	undirected graphical
0.4270000000	taking inspiration
0.4270000000	lexicon grammar
0.4270000000	valued reproducing
0.4270000000	based semi
0.4270000000	depends critically
0.4270000000	graph signal
0.4270000000	fingerprint recognition
0.4270000000	text categorization
0.4270000000	morphologically rich
0.4270000000	relu activation
0.4270000000	saliency models
0.4270000000	in silico
0.4270000000	rejection sampling
0.4260000000	low rank matrix estimation
0.4260000000	online handwritten chinese character
0.4260000000	unlike previous approaches
0.4260000000	multivariate performance measures
0.4260000000	high dimensional data
0.4260000000	approximate dynamic programming
0.4260000000	hmm based speech
0.4260000000	displacement optical flow
0.4260000000	exploratory data analysis
0.4260000000	leverage score sampling
0.4260000000	3d pose estimation
0.4260000000	subspace clustering ssc
0.4260000000	the generative model
0.4260000000	open ended evolution
0.4260000000	the reconstruction error
0.4260000000	semi supervised learning
0.4260000000	chinese word
0.4260000000	user interface
0.4260000000	functional connectivity
0.4260000000	functional data
0.4260000000	sar images
0.4260000000	manifold valued
0.4260000000	logo recognition
0.4260000000	cs mri
0.4260000000	fml based
0.4260000000	contact map
0.4260000000	reactive power
0.4260000000	lifelong learning
0.4260000000	ml programs
0.4260000000	online feature
0.4260000000	languages based
0.4260000000	descent algorithm
0.4260000000	open space
0.4260000000	implicit discourse
0.4260000000	merging operators
0.4260000000	tv minimization
0.4260000000	data driven
0.4260000000	conventional cs
0.4260000000	log frac
0.4260000000	starcraft ii
0.4260000000	video face
0.4260000000	clean speech
0.4260000000	carlo sampling
0.4260000000	founded semantics
0.4250000000	large scale visual recognition
0.4250000000	for skeleton based action
0.4250000000	gaussian process latent variable
0.4250000000	kernel density estimation
0.4250000000	video based face
0.4250000000	instance level object
0.4250000000	connectionist temporal classification
0.4250000000	remote sensing data
0.4250000000	attention based encoder
0.4250000000	the latent space
0.4250000000	basic probability assignment
0.4250000000	inference algorithms based
0.4250000000	mean discrepancy mmd
0.4250000000	single hidden
0.4250000000	source domain
0.4250000000	remains unclear
0.4250000000	stochastic variance
0.4250000000	discrete latent
0.4250000000	comparative study
0.4250000000	scattering transform
0.4250000000	hashing codes
0.4250000000	event recognition
0.4250000000	gradient svrg
0.4250000000	pareto optimal
0.4250000000	artificial general
0.4250000000	biometric systems
0.4250000000	moving objects
0.4250000000	group decision
0.4250000000	items based
0.4250000000	lstm neural
0.4250000000	mode seeking
0.4250000000	data produced
0.4250000000	quantum machine
0.4250000000	graph clustering
0.4250000000	log linear
0.4250000000	neural style
0.4250000000	probabilistic deduction
0.4240000000	long short term memory lstm networks
0.4240000000	orders of magnitude faster than
0.4240000000	deep convolutional neural network cnn
0.4240000000	feed forward neural network
0.4240000000	conditional random fields crf
0.4240000000	graph based semi supervised
0.4240000000	deep convolutional generative adversarial
0.4240000000	instance aware semantic
0.4240000000	classification method based
0.4240000000	neural sequence models
0.4240000000	the developing world
0.4240000000	knowledge graph embedding
0.4240000000	of crucial importance
0.4240000000	black box attacks
0.4240000000	dialogue state tracking
0.4240000000	the cost function
0.4240000000	local learning rules
0.4240000000	real world datasets
0.4240000000	scene text recognition
0.4240000000	intensive care units
0.4240000000	gene regulatory networks
0.4240000000	spoken language translation
0.4240000000	false alarm rate
0.4240000000	quantitative evaluation
0.4240000000	vector machine
0.4240000000	off line
0.4240000000	theoretical framework
0.4240000000	empirical study
0.4240000000	prior polarity
0.4240000000	hardware accelerator
0.4240000000	dimensional space
0.4240000000	newly collected
0.4240000000	acoustic tokens
0.4240000000	hybrid bayesian
0.4240000000	satellite images
0.4240000000	propagation bp
0.4240000000	inductive logic
0.4240000000	continuous control
0.4240000000	joint training
0.4240000000	achieve competitive
0.4240000000	open information
0.4240000000	sigmoid belief
0.4240000000	automatic segmentation
0.4240000000	human intervention
0.4240000000	level sentiment
0.4240000000	state action
0.4240000000	convergence guarantees
0.4240000000	diffusion mri
0.4240000000	explained variance
0.4240000000	universal perturbations
0.4240000000	latent factor
0.4240000000	based light
0.4240000000	based gaze
0.4240000000	multi source
0.4240000000	leading eigenvector
0.4240000000	graph embedding
0.4240000000	computational learning
0.4240000000	training algorithm
0.4240000000	adversarial images
0.4240000000	non gaussian
0.4240000000	convolutional sparse
0.4240000000	relative motions
0.4240000000	convolutional auto
0.4240000000	bayesian structure
0.4240000000	inner workings
0.4240000000	failure diagnosis
0.4240000000	poisson denoising
0.4240000000	texture descriptor
0.4240000000	partially observed
0.4230000000	hidden markov model
0.4230000000	low resolution images
0.4230000000	artificial neural networks
0.4230000000	advantages and limitations
0.4230000000	pre training
0.4230000000	activation function
0.4230000000	structured output
0.4230000000	energy based
0.4230000000	theoretical analysis
0.4230000000	face image
0.4230000000	empirical analysis
0.4230000000	place recognition
0.4230000000	unsupervised learning
0.4230000000	image patches
0.4230000000	natural image
0.4230000000	single label
0.4230000000	natural images
0.4230000000	image fusion
0.4230000000	image splicing
0.4230000000	giving rise
0.4230000000	shown promising
0.4230000000	artificial bee
0.4230000000	promising results
0.4230000000	inductive synthesis
0.4230000000	fisheye cameras
0.4230000000	local image
0.4230000000	stereo vision
0.4230000000	clustering based
0.4230000000	human motion
0.4230000000	curriculum learning
0.4230000000	comparable performance
0.4230000000	significant progress
0.4230000000	world knowledge
0.4230000000	mean squared
0.4230000000	target domains
0.4230000000	adversarial samples
0.4230000000	multi object
0.4230000000	large margin
0.4230000000	target domain
0.4230000000	daily activities
0.4230000000	labeled data
0.4230000000	bayesian model
0.4230000000	dirichlet process
0.4230000000	logic rules
0.4230000000	document clustering
0.4230000000	leaf nodes
0.4230000000	attracting increasing
0.4220000000	large vocabulary continuous speech recognition
0.4220000000	carlo tree search
0.4220000000	neural sequence to
0.4220000000	l infty norm
0.4220000000	temporal difference learning
0.4220000000	positive definite kernels
0.4220000000	latent variable models
0.4220000000	a low rank
0.4220000000	sparsity inducing norms
0.4220000000	layer perceptron mlp
0.4220000000	quantitative analysis
0.4220000000	au detection
0.4220000000	processing tasks
0.4220000000	base station
0.4220000000	depth maps
0.4220000000	phase transitions
0.4220000000	logo images
0.4220000000	extensive empirical
0.4220000000	significantly reduce
0.4220000000	order statistics
0.4220000000	widely applied
0.4220000000	seismic data
0.4220000000	the fittest
0.4220000000	multivariate regression
0.4220000000	the penultimate
0.4220000000	signed distance
0.4220000000	linear programming
0.4220000000	approximate policy
0.4220000000	approximate solutions
0.4220000000	speech corpus
0.4220000000	context free
0.4220000000	global convergence
0.4220000000	human machine
0.4220000000	kernel function
0.4220000000	class classification
0.4220000000	singular value
0.4220000000	data points
0.4220000000	adverse drug
0.4220000000	abnormal event
0.4220000000	archetypal analysis
0.4220000000	weighted ell
0.4220000000	performs comparably
0.4220000000	graph fourier
0.4220000000	distributionally robust
0.4220000000	relative improvement
0.4220000000	lens distortion
0.4210000000	time of flight tof
0.4210000000	single shot multibox
0.4210000000	the dendritic cell
0.4210000000	extensive experimental results
0.4210000000	times faster than
0.4210000000	experimental results show
0.4210000000	the latent variables
0.4210000000	parallel stochastic gradient
0.4210000000	pre processing step
0.4210000000	high order interaction
0.4210000000	multi atlas segmentation
0.4210000000	multitask learning
0.4210000000	naturally occurring
0.4210000000	regression tasks
0.4210000000	unbiased black
0.4210000000	malware samples
0.4210000000	schemes based
0.4210000000	supervised domain
0.4210000000	unsupervised domain
0.4210000000	geometric algebra
0.4210000000	statistical machine
0.4210000000	research area
0.4210000000	exogenous variables
0.4210000000	artificial immune
0.4210000000	auction mechanism
0.4210000000	traffic lights
0.4210000000	posterior sampling
0.4210000000	hindi language
0.4210000000	attention network
0.4210000000	recently deep
0.4210000000	topic model
0.4210000000	frame rate
0.4210000000	global optimization
0.4210000000	evaluation metric
0.4210000000	structural properties
0.4210000000	efficiently solved
0.4210000000	lidar data
0.4210000000	based anomaly
0.4210000000	personal assistants
0.4210000000	words bow
0.4210000000	digital curves
0.4210000000	tensor train
0.4210000000	computational model
0.4210000000	approximation algorithm
0.4210000000	experiments conducted
0.4210000000	fitness evaluations
0.4210000000	meta learning
0.4210000000	lock free
0.4210000000	perform experiments
0.4210000000	grows linearly
0.4210000000	neighboring pixels
0.4210000000	intensive care
0.4200000000	pay more attention to
0.4200000000	the past decade
0.4200000000	a set of
0.4200000000	the vector space
0.4200000000	data mining techniques
0.4200000000	least squares irls
0.4200000000	a regret bound
0.4200000000	deep neural nets
0.4200000000	theoretical analysis shows
0.4200000000	fully convolutional neural
0.4200000000	classification and regression
0.4200000000	heterogeneous data
0.4200000000	unavailability of
0.4200000000	theoretical bounds
0.4200000000	strong negation
0.4200000000	resolution hr
0.4200000000	contextual information
0.4200000000	great progress
0.4200000000	control variate
0.4200000000	assembly line
0.4200000000	lexical entailment
0.4200000000	early detection
0.4200000000	lstm crf
0.4200000000	digital image
0.4200000000	meta learner
0.4200000000	computational biology
0.4200000000	galaxy images
0.4200000000	nonconvex optimization
0.4200000000	boosting forest
0.4200000000	label refinements
0.4200000000	attribute implications
0.4200000000	cross source
0.4190000000	stochastic gradient langevin dynamics
0.4190000000	approximate nearest neighbor search
0.4190000000	a completely unsupervised manner
0.4190000000	receiver operating characteristic curve
0.4190000000	audio source separation
0.4190000000	latent variable model
0.4190000000	neural translation model
0.4190000000	vector representation
0.4190000000	inception module
0.4190000000	screen content
0.4190000000	defend against
0.4190000000	theoretical results
0.4190000000	face representation
0.4190000000	single task
0.4190000000	language modeling
0.4190000000	frequency bands
0.4190000000	drug interactions
0.4190000000	dependency parsers
0.4190000000	covering based
0.4190000000	the lidc
0.4190000000	linear combination
0.4190000000	speech synthesis
0.4190000000	variation tv
0.4190000000	side effects
0.4190000000	narrow band
0.4190000000	squares regression
0.4190000000	pairwise potentials
0.4190000000	takes advantage
0.4190000000	data streams
0.4190000000	graph matching
0.4190000000	cp rank
0.4190000000	carefully designed
0.4190000000	potential applications
0.4190000000	echo state
0.4180000000	a machine learning approach
0.4180000000	automatic speech recognition systems
0.4180000000	facial key points
0.4180000000	k means algorithm
0.4180000000	deep convolution neural
0.4180000000	combinatorial optimization problems
0.4180000000	sum product networks
0.4180000000	3d hand pose
0.4180000000	user generated content
0.4180000000	automatic post editing
0.4180000000	intrusion detection systems
0.4180000000	correlation filter
0.4180000000	user generated
0.4180000000	intelligent transportation
0.4180000000	mu m
0.4180000000	integral image
0.4180000000	detecting anomalies
0.4180000000	causal models
0.4180000000	speech translation
0.4180000000	automatic differentiation
0.4180000000	admm algorithm
0.4180000000	data clustering
0.4180000000	camera pose
0.4180000000	multi relational
0.4180000000	convolutional network
0.4180000000	multiple object
0.4170000000	recurrent neural network language models
0.4170000000	end to end reinforcement learning
0.4170000000	model free and model based
0.4170000000	synthetic aperture radar sar images
0.4170000000	deep learning based approach
0.4170000000	polynomial time algorithms
0.4170000000	image retrieval based
0.4170000000	the sp theory
0.4170000000	upper confidence bounds
0.4170000000	uniformly at random
0.4170000000	non local means
0.4170000000	the european parliament
0.4170000000	layer wise
0.4170000000	adaptive walks
0.4170000000	future frames
0.4170000000	outperforms previous
0.4170000000	faster than
0.4170000000	facial image
0.4170000000	visible units
0.4170000000	research areas
0.4170000000	polynomial time
0.4170000000	research topic
0.4170000000	electronic health
0.4170000000	rotation invariance
0.4170000000	music auto
0.4170000000	the globe
0.4170000000	information about
0.4170000000	hidden variables
0.4170000000	clustering algorithms
0.4170000000	partial derivatives
0.4170000000	dnn hmm
0.4170000000	digital pathology
0.4170000000	camera motion
0.4170000000	graph neural
0.4170000000	experiment results
0.4170000000	large number
0.4170000000	translation model
0.4170000000	approximation algorithms
0.4170000000	pixel level
0.4170000000	non commutative
0.4170000000	handwritten arabic
0.4170000000	probabilistic reasoning
0.4170000000	story generation
0.4160000000	conditional generative adversarial networks
0.4160000000	available at https
0.4160000000	binary hash codes
0.4160000000	probabilistic programming languages
0.4160000000	last few years
0.4160000000	period of time
0.4160000000	word length
0.4160000000	virtual screening
0.4160000000	extensive evaluations
0.4160000000	performance evaluation
0.4160000000	high fidelity
0.4160000000	numerous applications
0.4160000000	policy improvement
0.4160000000	attention model
0.4160000000	feature representation
0.4160000000	front facing
0.4160000000	low complexity
0.4160000000	state of
0.4160000000	frame interpolation
0.4160000000	ising models
0.4160000000	analogy questions
0.4160000000	application domains
0.4160000000	robust pca
0.4160000000	multi step
0.4160000000	additive noise
0.4160000000	unlike existing
0.4150000000	attention based sequence to sequence
0.4150000000	bidirectional long short term
0.4150000000	image quality assessment iqa
0.4150000000	conditional probability tables
0.4150000000	speech emotion recognition
0.4150000000	a computational model
0.4150000000	a gaussian process
0.4150000000	the present paper
0.4150000000	the target domain
0.4150000000	elastic net regularization
0.4150000000	of great importance
0.4150000000	the em algorithm
0.4150000000	the neural network
0.4150000000	stochastic gradient methods
0.4150000000	additive regression trees
0.4150000000	the art methods
0.4150000000	frank wolfe algorithm
0.4150000000	bandit problems
0.4150000000	gating mechanism
0.4150000000	scale free
0.4150000000	image dehazing
0.4150000000	semi automatic
0.4150000000	performance improvement
0.4150000000	performance guarantees
0.4150000000	generalized eigenvalue
0.4150000000	statistical properties
0.4150000000	nlp tasks
0.4150000000	view specific
0.4150000000	previous work
0.4150000000	photo sketch
0.4150000000	iterative closest
0.4150000000	posterior inference
0.4150000000	online td
0.4150000000	linear combinations
0.4150000000	information extraction
0.4150000000	sufficient conditions
0.4150000000	causal direction
0.4150000000	human body
0.4150000000	human parsing
0.4150000000	inertial sensors
0.4150000000	rationale behind
0.4150000000	qualitative spatial
0.4150000000	self taught
0.4150000000	compression artifacts
0.4150000000	recent progress
0.4150000000	mean square
0.4150000000	geodesic distance
0.4150000000	plethora of
0.4150000000	brain imaging
0.4150000000	boosting algorithm
0.4150000000	multimedia event
0.4150000000	hyperspectral image
0.4140000000	experiments on synthetic and real
0.4140000000	an end to end manner
0.4140000000	a recurrent neural network
0.4140000000	sequence to sequence seq2seq
0.4140000000	the kl divergence
0.4140000000	discrete wavelet transform
0.4140000000	single document summarization
0.4140000000	human connectome project
0.4140000000	first order logic
0.4140000000	conduct experiments
0.4140000000	energy management
0.4140000000	free energy
0.4140000000	models trained
0.4140000000	social networks
0.4140000000	kitti 2015
0.4140000000	single document
0.4140000000	resolution lr
0.4140000000	empirical evaluation
0.4140000000	image search
0.4140000000	resolution multispectral
0.4140000000	minimum spanning
0.4140000000	module theorem
0.4140000000	conducted experiments
0.4140000000	results suggest
0.4140000000	previous approaches
0.4140000000	statistical analysis
0.4140000000	occluded faces
0.4140000000	pet images
0.4140000000	novelty detection
0.4140000000	row sparsity
0.4140000000	salient region
0.4140000000	exploding gradient
0.4140000000	constrained optimization
0.4140000000	united states
0.4140000000	speech tagger
0.4140000000	color transfer
0.4140000000	inverse problems
0.4140000000	conditional probabilities
0.4140000000	lane detection
0.4140000000	power grids
0.4140000000	soft constraints
0.4140000000	large numbers
0.4140000000	specifically designed
0.4140000000	error bound
0.4140000000	heart disease
0.4130000000	learning in deep neural networks
0.4130000000	prediction with expert advice
0.4130000000	a deep learning approach
0.4130000000	lstm long short term
0.4130000000	actor critic reinforcement
0.4130000000	method significantly outperforms
0.4130000000	bias variance tradeoff
0.4130000000	performs better than
0.4130000000	a challenging task
0.4130000000	information retrieval ir
0.4130000000	shop scheduling problems
0.4130000000	cosine transform
0.4130000000	higher accuracy
0.4130000000	model based
0.4130000000	knowledge compilation
0.4130000000	vector representations
0.4130000000	locality sensitive
0.4130000000	speed up
0.4130000000	competitive results
0.4130000000	reasoning about
0.4130000000	provably converges
0.4130000000	second order
0.4130000000	policy based
0.4130000000	statistical learning
0.4130000000	efficient algorithms
0.4130000000	mr images
0.4130000000	coalition structure
0.4130000000	biological neural
0.4130000000	wireless sensor
0.4130000000	news recommendation
0.4130000000	tremendous success
0.4130000000	level features
0.4130000000	spectral angle
0.4130000000	climate change
0.4130000000	clothing attributes
0.4130000000	regularization term
0.4130000000	based methods
0.4130000000	based algorithm
0.4130000000	player game
0.4130000000	dag models
0.4130000000	de la
0.4130000000	sparsity promoting
0.4130000000	dynamic pricing
0.4130000000	community structure
0.4130000000	object affordances
0.4130000000	disease ad
0.4130000000	sea surface
0.4130000000	multitude of
0.4120000000	end to end speech recognition
0.4120000000	an encoder decoder
0.4120000000	dialogue response generation
0.4120000000	of paramount importance
0.4120000000	bayesian network classifiers
0.4120000000	a probability distribution
0.4120000000	image classification tasks
0.4120000000	deep learning based
0.4120000000	a fully convolutional
0.4120000000	an unsupervised manner
0.4120000000	sparse subspace
0.4120000000	experimental validation
0.4120000000	this problem
0.4120000000	energy efficiency
0.4120000000	supervised object
0.4120000000	unsupervised feature
0.4120000000	genetic regulatory
0.4120000000	relational models
0.4120000000	hand designed
0.4120000000	deep generative
0.4120000000	test statistic
0.4120000000	support vector
0.4120000000	normalized mutual
0.4120000000	cumulative reward
0.4120000000	near optimal
0.4120000000	linear functions
0.4120000000	linear discriminant
0.4120000000	dense correspondences
0.4120000000	human activity
0.4120000000	motion deblurring
0.4120000000	privacy policies
0.4120000000	dominating set
0.4120000000	primarily focused
0.4120000000	batch gradient
0.4120000000	minority class
0.4120000000	speaker identification
0.4120000000	yield curve
0.4120000000	writing style
0.4120000000	hot encoding
0.4120000000	relation types
0.4120000000	labeled training
0.4120000000	random field
0.4120000000	non parametric
0.4120000000	analytical expressions
0.4110000000	an end to end fashion
0.4110000000	multi armed bandit problems
0.4110000000	a fully convolutional network
0.4110000000	a broad class
0.4110000000	referred to as
0.4110000000	fuzzy inference systems
0.4110000000	the posterior distribution
0.4110000000	l 1 norm
0.4110000000	a training set
0.4110000000	social network analysis
0.4110000000	does not require
0.4110000000	scales linearly with
0.4110000000	a fully connected
0.4110000000	single image dehazing
0.4110000000	ct image
0.4110000000	word analogy
0.4110000000	tree ensembles
0.4110000000	sar imagery
0.4110000000	abductive reasoning
0.4110000000	inspired by
0.4110000000	compared to
0.4110000000	three dimensional
0.4110000000	face detector
0.4110000000	natural languages
0.4110000000	gmm kernel
0.4110000000	cue phrases
0.4110000000	event definitions
0.4110000000	records ehr
0.4110000000	disjoint camera
0.4110000000	plausible reasoning
0.4110000000	smart devices
0.4110000000	planning algorithm
0.4110000000	accordance with
0.4110000000	lieu of
0.4110000000	programming languages
0.4110000000	weak oracle
0.4110000000	wireless capsule
0.4110000000	go beyond
0.4110000000	shape descriptor
0.4110000000	exploitation trade
0.4110000000	an efficient
0.4110000000	comparable results
0.4110000000	asymptotically optimal
0.4110000000	evolutionary processes
0.4110000000	valued neutrosophic
0.4110000000	mean field
0.4110000000	printed books
0.4110000000	cell rna
0.4110000000	computational expense
0.4110000000	fingerprint images
0.4110000000	fingerprint matching
0.4110000000	video compressive
0.4110000000	secondary user
0.4110000000	temporal action
0.4110000000	non convex
0.4110000000	weather forecasting
0.4110000000	poisson noise
0.4110000000	variance reduced
0.4100000000	union of low dimensional subspaces
0.4100000000	minimum description length mdl principle
0.4100000000	point spread function psf
0.4100000000	no reference image
0.4100000000	positive semidefinite matrix
0.4100000000	log 1 epsilon
0.4100000000	learning bayesian networks
0.4100000000	dark channel
0.4100000000	improve performance
0.4100000000	processing unit
0.4100000000	fewer parameters
0.4100000000	face identification
0.4100000000	source language
0.4100000000	prediction accuracy
0.4100000000	visual words
0.4100000000	language identification
0.4100000000	clique tree
0.4100000000	action proposal
0.4100000000	action localization
0.4100000000	human level
0.4100000000	multimodal biometric
0.4100000000	fashion items
0.4100000000	plenty of
0.4100000000	solar power
0.4100000000	graph kernels
0.4100000000	during training
0.4100000000	syntax errors
0.4100000000	spanned by
0.4100000000	generalization bound
0.4100000000	accounted for
0.4090000000	continuous state and action spaces
0.4090000000	a lot of attention
0.4090000000	the last decade
0.4090000000	automated theorem proving
0.4090000000	dynamic epistemic logic
0.4090000000	weakly supervised learning
0.4090000000	take into account
0.4090000000	subspace clustering methods
0.4090000000	mid level features
0.4090000000	medical image segmentation
0.4090000000	the l 1
0.4090000000	first person videos
0.4090000000	under mild conditions
0.4090000000	sketch based image
0.4090000000	pre specified
0.4090000000	network data
0.4090000000	performance analysis
0.4090000000	prior work
0.4090000000	face database
0.4090000000	unsupervised object
0.4090000000	wavelet coefficients
0.4090000000	complemented by
0.4090000000	inference based
0.4090000000	block structure
0.4090000000	embedding methods
0.4090000000	dense slam
0.4090000000	attention models
0.4090000000	automatic liver
0.4090000000	based on
0.4090000000	quantum theory
0.4090000000	dialogue state
0.4090000000	mathematical morphology
0.4090000000	adversarial network
0.4090000000	vocabulary words
0.4090000000	exact inference
0.4090000000	features extracted
0.4090000000	optical coherence
0.4090000000	accumulation point
0.4090000000	random projection
0.4090000000	non linear
0.4090000000	simulated data
0.4090000000	object oriented
0.4090000000	teaching dimension
0.4090000000	video segmentation
0.4090000000	detection problem
0.4080000000	continuous time bayesian networks
0.4080000000	built on top of
0.4080000000	out of vocabulary oov
0.4080000000	course timetabling problem
0.4080000000	the computational cost
0.4080000000	recall and precision
0.4080000000	convolution neural network
0.4080000000	the classification accuracy
0.4080000000	mean and variance
0.4080000000	a probabilistic model
0.4080000000	the learning rate
0.4080000000	a diverse set
0.4080000000	the learning algorithm
0.4080000000	camera trap images
0.4080000000	the multi scale
0.4080000000	single image super
0.4080000000	sparse group
0.4080000000	stochastic quasi
0.4080000000	radial basis
0.4080000000	governed by
0.4080000000	deep hashing
0.4080000000	shown promise
0.4080000000	matrix multiplications
0.4080000000	attention networks
0.4080000000	linear convergence
0.4080000000	color image
0.4080000000	learning bayesian
0.4080000000	action detection
0.4080000000	indoor scene
0.4080000000	column subset
0.4080000000	lstm rnn
0.4080000000	convergence analysis
0.4080000000	clustering problem
0.4080000000	irrespective of
0.4080000000	utility functions
0.4080000000	received considerable
0.4080000000	relies heavily
0.4080000000	tumor segmentation
0.4080000000	task oriented
0.4080000000	dataset based
0.4080000000	large knowledge
0.4080000000	churn prediction
0.4080000000	bayesian neural
0.4080000000	smt solver
0.4080000000	fuzzy membership
0.4080000000	variational bayesian
0.4080000000	customer reviews
0.4070000000	a convolutional neural network
0.4070000000	a deep learning framework
0.4070000000	memory augmented neural networks
0.4070000000	the syntax and semantics
0.4070000000	mean and standard deviation
0.4070000000	available at http
0.4070000000	2d and 3d
0.4070000000	visual semantic embedding
0.4070000000	central limit theorem
0.4070000000	positive semidefinite matrices
0.4070000000	extended kalman filter
0.4070000000	variable neighborhood search
0.4070000000	experimental results indicate
0.4070000000	a data driven
0.4070000000	large amounts of
0.4070000000	seen and unseen
0.4070000000	users and items
0.4070000000	inversely proportional to
0.4070000000	software development
0.4070000000	model selection
0.4070000000	spoofing detection
0.4070000000	sparse pca
0.4070000000	resolution image
0.4070000000	sequence classification
0.4070000000	visual face
0.4070000000	facial feature
0.4070000000	spatial reasoning
0.4070000000	generalized rough
0.4070000000	simplifying assumptions
0.4070000000	encouraging results
0.4070000000	of theart
0.4070000000	matching problem
0.4070000000	convergence results
0.4070000000	decision theory
0.4070000000	fully automated
0.4070000000	kernel learning
0.4070000000	spectral bands
0.4070000000	mathcal x
0.4070000000	utility function
0.4070000000	self supervised
0.4070000000	data consists
0.4070000000	directly applied
0.4070000000	dynamic bayesian
0.4070000000	heart rate
0.4070000000	generalization error
0.4060000000	convolutional neural networks and recurrent
0.4060000000	an order of magnitude
0.4060000000	multiple sequence alignment
0.4060000000	a powerful tool
0.4060000000	column subset selection
0.4060000000	a general framework
0.4060000000	monocular visual odometry
0.4060000000	online social networks
0.4060000000	a weakly supervised
0.4060000000	structured output prediction
0.4060000000	facial landmark localization
0.4060000000	english machine
0.4060000000	present results
0.4060000000	demographic attributes
0.4060000000	breakdown point
0.4060000000	convex function
0.4060000000	image cropping
0.4060000000	traditional approaches
0.4060000000	high dimensionality
0.4060000000	utterance level
0.4060000000	markov decision
0.4060000000	stock exchange
0.4060000000	the distributions
0.4060000000	confidence bound
0.4060000000	accompanied by
0.4060000000	feature detectors
0.4060000000	constraint handling
0.4060000000	human decision
0.4060000000	automatic evaluation
0.4060000000	global constraints
0.4060000000	lstm networks
0.4060000000	binarized neural
0.4060000000	almost everywhere
0.4060000000	surrogate risk
0.4060000000	noise removal
0.4060000000	recent results
0.4060000000	based loss
0.4060000000	pertaining to
0.4060000000	applied to
0.4060000000	soft thresholding
0.4060000000	surveillance cameras
0.4060000000	incapable of
0.4060000000	observational data
0.4060000000	text to
0.4060000000	opposed to
0.4060000000	per pixel
0.4060000000	preserving hashing
0.4050000000	symmetric positive definite matrices
0.4050000000	the key idea
0.4050000000	ell 1 norm
0.4050000000	particular object retrieval
0.4050000000	training deep neural
0.4050000000	a first step
0.4050000000	the low dimensional
0.4050000000	o n 2
0.4050000000	major drawback
0.4050000000	roc curves
0.4050000000	s razor
0.4050000000	granulation theory
0.4050000000	k ary
0.4050000000	report results
0.4050000000	generalized linear
0.4050000000	reminiscent of
0.4050000000	oov words
0.4050000000	speech data
0.4050000000	ln t
0.4050000000	cardiac disease
0.4050000000	arbitrarily close
0.4050000000	computer simulations
0.4050000000	nodule detection
0.4050000000	rnn encoder
0.4050000000	cognitive psychology
0.4050000000	marked temporal
0.4050000000	large data
0.4050000000	neural word
0.4050000000	bayesian quadrature
0.4050000000	perform extensive
0.4050000000	hierarchical bayesian
0.4050000000	bellman error
0.4050000000	carefully chosen
0.4050000000	resort to
0.4040000000	based on long short term
0.4040000000	available at https github.com
0.4040000000	a fundamental problem
0.4040000000	the hidden layer
0.4040000000	real world problems
0.4040000000	an in depth
0.4040000000	a useful tool
0.4040000000	major challenges
0.4040000000	dose ct
0.4040000000	word based
0.4040000000	owing to
0.4040000000	arithmetic circuits
0.4040000000	combination rules
0.4040000000	refer to
0.4040000000	spite of
0.4040000000	traffic data
0.4040000000	k nearest
0.4040000000	price auctions
0.4040000000	planning problems
0.4040000000	salient objects
0.4040000000	softmax loss
0.4040000000	constraint violations
0.4040000000	approximate linear
0.4040000000	sufficient decrease
0.4040000000	uncertainty quantification
0.4040000000	population size
0.4040000000	compact representation
0.4040000000	rnn models
0.4040000000	text simplification
0.4040000000	amounts of
0.4040000000	probability density
0.4040000000	water bodies
0.4030000000	robust principal component analysis
0.4030000000	the computational complexity
0.4030000000	a broad range
0.4030000000	encoder decoder architecture
0.4030000000	a major challenge
0.4030000000	instance multi label
0.4030000000	this short paper
0.4030000000	trace norm regularization
0.4030000000	component analysis pca
0.4030000000	sensory inputs
0.4030000000	knowledge management
0.4030000000	user item
0.4030000000	technical report
0.4030000000	routing problem
0.4030000000	answering vqa
0.4030000000	neutrosophic set
0.4030000000	varying degrees
0.4030000000	superpixel segmentation
0.4030000000	item recommendation
0.4030000000	dermoscopy images
0.4030000000	simulation results
0.4030000000	keyword extraction
0.4030000000	the pose
0.4030000000	structure discovery
0.4030000000	substantial gains
0.4030000000	provable guarantees
0.4030000000	parameter lambda
0.4030000000	consistent improvements
0.4030000000	sparsifying transform
0.4030000000	graph structured
0.4030000000	soft computing
0.4030000000	training examples
0.4030000000	dataset consisting
0.4030000000	parse tree
0.4030000000	episodic memory
0.4030000000	akin to
0.4030000000	predictive power
0.4030000000	dealing with
0.4030000000	spanning trees
0.4020000000	a generative adversarial network
0.4020000000	stochastic dual coordinate ascent
0.4020000000	stereo visual odometry
0.4020000000	mean square error
0.4020000000	speech pos tagging
0.4020000000	decision tree induction
0.4020000000	under certain conditions
0.4020000000	the context of
0.4020000000	a promising approach
0.4020000000	a semi supervised
0.4020000000	variation tv regularization
0.4020000000	on one hand
0.4020000000	program induction
0.4020000000	egocentric video
0.4020000000	user engagement
0.4020000000	knowledge tracing
0.4020000000	box attacks
0.4020000000	mixed strategy
0.4020000000	contrary to
0.4020000000	significantly reduces
0.4020000000	hardware implementations
0.4020000000	facial attributes
0.4020000000	generalized additive
0.4020000000	special attention
0.4020000000	hand tuned
0.4020000000	spatial temporal
0.4020000000	contact prediction
0.4020000000	bn structure
0.4020000000	recovery guarantees
0.4020000000	the boundary
0.4020000000	the scale
0.4020000000	the batch
0.4020000000	news stories
0.4020000000	achieves comparable
0.4020000000	diffusion tensor
0.4020000000	an important
0.4020000000	an algorithm
0.4020000000	utility elicitation
0.4020000000	crowd density
0.4020000000	translation systems
0.4020000000	target signatures
0.4020000000	trainable parameters
0.4020000000	conversational agents
0.4020000000	cluttered environments
0.4020000000	non stationary
0.4020000000	object classes
0.4020000000	subset selection
0.4020000000	piecewise smooth
0.4020000000	belonging to
0.4020000000	overcomplete dictionaries
0.4010000000	attention based neural machine translation
0.4010000000	both synthetic and real world
0.4010000000	the past few years
0.4010000000	multi class support vector
0.4010000000	for neural machine translation
0.4010000000	kernel principal component
0.4010000000	kernel density estimates
0.4010000000	human object interactions
0.4010000000	generative and discriminative
0.4010000000	a high dimensional
0.4010000000	a finite number
0.4010000000	primary visual cortex
0.4010000000	on synthetic data
0.4010000000	the experimental results
0.4010000000	machine learning techniques
0.4010000000	spatial pyramid pooling
0.4010000000	ground level images
0.4010000000	each time step
0.4010000000	motion capture data
0.4010000000	order interaction features
0.4010000000	arises naturally
0.4010000000	recognition rates
0.4010000000	algorithm performs
0.4010000000	image hsi
0.4010000000	sequence labeling
0.4010000000	maximally informative
0.4010000000	horn logic
0.4010000000	2d pose
0.4010000000	cascaded regression
0.4010000000	median filtering
0.4010000000	the entropy
0.4010000000	categorical variables
0.4010000000	the frame
0.4010000000	the coefficients
0.4010000000	l2 regularization
0.4010000000	refers to
0.4010000000	consisting of
0.4010000000	information loss
0.4010000000	joint learning
0.4010000000	positive unlabeled
0.4010000000	complexity analysis
0.4010000000	fully supervised
0.4010000000	search results
0.4010000000	self assembly
0.4010000000	proper names
0.4010000000	variable importance
0.4010000000	adverse conditions
0.4010000000	f score
0.4010000000	meta heuristics
0.4010000000	residual nets
0.4010000000	theoretic approach
0.4010000000	fingerprint verification
0.4010000000	synaptic weight
0.4010000000	well established
0.4010000000	bi objective
0.4010000000	teacher network
0.4000000000	phrase based statistical machine translation
0.4000000000	a low rank matrix
0.4000000000	randomized block coordinate
0.4000000000	stochastic block model
0.4000000000	a comparative study
0.4000000000	vehicle license plate
0.4000000000	network intrusion detection
0.4000000000	high level features
0.4000000000	multi context systems
0.4000000000	empirical results demonstrate
0.4000000000	compositional distributional semantics
0.4000000000	random field gmrf
0.4000000000	a closed form
0.4000000000	ultrasound image
0.4000000000	robot arm
0.4000000000	single pixel
0.4000000000	much easier
0.4000000000	wavelet scattering
0.4000000000	adjacent frames
0.4000000000	ml algorithms
0.4000000000	rating prediction
0.4000000000	quadratic assignment
0.4000000000	continual learning
0.4000000000	expert advice
0.4000000000	the sentiment
0.4000000000	the best
0.4000000000	the flow
0.4000000000	rectified linear
0.4000000000	more complex
0.4000000000	implicit bias
0.4000000000	universally consistent
0.4000000000	equivalence relation
0.4000000000	recent deep
0.4000000000	instructional videos
0.4000000000	oblique decision
0.4000000000	bleu score
0.4000000000	multi kernel
0.4000000000	computational theory
0.4000000000	pay attention
0.4000000000	clause sets
0.4000000000	text dependent
0.4000000000	classification task
0.4000000000	summary statistics
0.3990000000	dialog state tracking challenge
0.3990000000	for person re identification
0.3990000000	an empirical study
0.3990000000	hierarchical dirichlet process
0.3990000000	backpropagation through time
0.3990000000	attention based models
0.3990000000	the sample size
0.3990000000	good and bad
0.3990000000	domain specific knowledge
0.3990000000	newton type methods
0.3990000000	a convolutional neural
0.3990000000	functional magnetic
0.3990000000	pure exploration
0.3990000000	first order
0.3990000000	health record
0.3990000000	air quality
0.3990000000	very large
0.3990000000	estimation accuracy
0.3990000000	kernel matrix
0.3990000000	edge detector
0.3990000000	aerial image
0.3990000000	identity preserving
0.3990000000	dynamically changing
0.3990000000	to learn
0.3990000000	abnormal events
0.3990000000	large quantities
0.3990000000	and monte
0.3990000000	video summaries
0.3990000000	per iteration
0.3980000000	an order of magnitude faster
0.3980000000	sequence to sequence learning
0.3980000000	significant performance gains
0.3980000000	attracting increasing attention
0.3980000000	makes use of
0.3980000000	hilbert spaces rkhs
0.3980000000	echo state network
0.3980000000	excess risk bounds
0.3980000000	of flight tof
0.3980000000	the paper presents
0.3980000000	asp solving
0.3980000000	subject fmri
0.3980000000	roc curve
0.3980000000	neighborhood graph
0.3980000000	prediction markets
0.3980000000	deep gaussian
0.3980000000	deep transfer
0.3980000000	vital role
0.3980000000	the decomposition
0.3980000000	international planning
0.3980000000	stationary policies
0.3980000000	defect detection
0.3980000000	clustering method
0.3980000000	tamil language
0.3980000000	algebraic geometry
0.3980000000	concept hierarchies
0.3980000000	weather data
0.3980000000	brain networks
0.3980000000	l p
0.3980000000	weather conditions
0.3980000000	man made
0.3980000000	saliency prediction
0.3980000000	weight pruning
0.3980000000	gp models
0.3980000000	deals with
0.3980000000	spiking networks
0.3970000000	a polynomial time algorithm
0.3970000000	mathbb r n times
0.3970000000	remote sensing image classification
0.3970000000	knowledge based systems
0.3970000000	pareto optimal front
0.3970000000	nuclear norm regularization
0.3970000000	the laplace beltrami
0.3970000000	ultrasound imaging
0.3970000000	spatial transformations
0.3970000000	voc 2010
0.3970000000	from scratch
0.3970000000	adjacency matrix
0.3970000000	dissimilarity measure
0.3970000000	clique potentials
0.3970000000	the speech
0.3970000000	indoor environments
0.3970000000	portfolio selection
0.3970000000	hundreds of
0.3970000000	cell lines
0.3970000000	fitness functions
0.3970000000	var model
0.3970000000	synaptic weights
0.3970000000	text recognition
0.3970000000	probabilistic neural
0.3970000000	deal with
0.3970000000	personalized recommendation
0.3960000000	out of sample extension
0.3960000000	solvable in polynomial time
0.3960000000	3d human pose
0.3960000000	present empirical results
0.3960000000	the voynich manuscript
0.3960000000	multi label video
0.3960000000	a latent variable
0.3960000000	the source code
0.3960000000	the most important
0.3960000000	however most existing
0.3960000000	approach significantly outperforms
0.3960000000	skin lesion classification
0.3960000000	bandit setting
0.3960000000	formal semantics
0.3960000000	dual averaging
0.3960000000	image to
0.3960000000	the regret
0.3960000000	salient regions
0.3960000000	the embeddings
0.3960000000	the pixel
0.3960000000	online algorithms
0.3960000000	logged data
0.3960000000	complexity results
0.3960000000	mnist handwritten
0.3960000000	semantic classes
0.3960000000	temporally coherent
0.3960000000	density estimator
0.3960000000	relation paths
0.3960000000	random matrix
0.3960000000	text segmentation
0.3960000000	road detection
0.3960000000	a character
0.3960000000	multiple layers
0.3960000000	smt solvers
0.3950000000	imagenet large scale visual recognition challenge
0.3950000000	synthetic and real world datasets
0.3950000000	magnetic resonance mr images
0.3950000000	floating point operations
0.3950000000	take full advantage
0.3950000000	discrete energy minimization
0.3950000000	bayesian networks bns
0.3950000000	gradient langevin dynamics
0.3950000000	vector data description
0.3950000000	seq data
0.3950000000	duality gap
0.3950000000	liver segmentation
0.3950000000	answer sentence
0.3950000000	inception residual
0.3950000000	trajectory prediction
0.3950000000	rigid shape
0.3950000000	theoretical justification
0.3950000000	supervised hashing
0.3950000000	ontology matching
0.3950000000	for face
0.3950000000	efficient algorithm
0.3950000000	autonomous robots
0.3950000000	weakly labelled
0.3950000000	important information
0.3950000000	the hessian
0.3950000000	e mail
0.3950000000	causal networks
0.3950000000	slowly varying
0.3950000000	more specifically
0.3950000000	automatic face
0.3950000000	kernel matrices
0.3950000000	sat problems
0.3950000000	robust estimation
0.3950000000	deception detection
0.3950000000	scientific publications
0.3950000000	f x
0.3950000000	deformation fields
0.3950000000	random graph
0.3950000000	relation classification
0.3950000000	achieved remarkable
0.3950000000	depending on
0.3950000000	a logic
0.3950000000	texture segmentation
0.3950000000	1 varepsilon
0.3950000000	segmentation algorithm
0.3940000000	weakly supervised object localization
0.3940000000	high level vision tasks
0.3940000000	a series of experiments
0.3940000000	3d human pose estimation
0.3940000000	nearest neighbour search
0.3940000000	a central role
0.3940000000	inductive logic programming
0.3940000000	computer interaction hci
0.3940000000	natural gradient
0.3940000000	scale invariant
0.3940000000	logarithmic regret
0.3940000000	strong baselines
0.3940000000	reverse engineering
0.3940000000	discrete wavelet
0.3940000000	item response
0.3940000000	posterior distributions
0.3940000000	the density
0.3940000000	dialog systems
0.3940000000	group sparse
0.3940000000	autism spectrum
0.3940000000	laplacian matrix
0.3940000000	general reinforcement
0.3940000000	partition functions
0.3940000000	largest publicly
0.3940000000	subjected to
0.3940000000	vietnamese language
0.3940000000	attributed graphs
0.3940000000	boolean formulas
0.3940000000	a set
0.3940000000	sql queries
0.3930000000	an empirical evaluation
0.3930000000	a unifying framework
0.3930000000	boltzmann machine rbm
0.3930000000	markov equivalence class
0.3930000000	a wide spectrum
0.3930000000	max margin learning
0.3930000000	depth map
0.3930000000	image transformation
0.3930000000	3d pose
0.3930000000	hand coded
0.3930000000	organ segmentation
0.3930000000	expected fitness
0.3930000000	algorithmic framework
0.3930000000	the machine
0.3930000000	standard benchmark
0.3930000000	retrieval based
0.3930000000	active set
0.3930000000	dct domain
0.3930000000	action classes
0.3930000000	unconstrained face
0.3930000000	semantic attributes
0.3930000000	human experts
0.3930000000	data collected
0.3930000000	these methods
0.3930000000	time stamps
0.3930000000	graph laplacian
0.3930000000	t 2
0.3930000000	bilingual dictionaries
0.3930000000	object segmentation
0.3930000000	concave distributions
0.3930000000	a variety
0.3930000000	a number
0.3930000000	monocular visual
0.3930000000	reservoir computers
0.3920000000	collaborative representation based classification
0.3920000000	variance reduced gradient svrg
0.3920000000	video game ai
0.3920000000	learning to rank
0.3920000000	user item interaction
0.3920000000	constant factor approximation
0.3920000000	a case study
0.3920000000	highly parallelizable
0.3920000000	grained details
0.3920000000	frequently encountered
0.3920000000	cancer patients
0.3920000000	great potential
0.3920000000	sketch synthesis
0.3920000000	degree corrected
0.3920000000	policy evaluation
0.3920000000	markov networks
0.3920000000	leverage scores
0.3920000000	the recognition
0.3920000000	the actor
0.3920000000	the rank
0.3920000000	the probabilities
0.3920000000	the fusion
0.3920000000	the control
0.3920000000	online learning
0.3920000000	causal graph
0.3920000000	consists of
0.3920000000	speech pos
0.3920000000	indoor localization
0.3920000000	matching pursuit
0.3920000000	grouping effect
0.3920000000	motion compensation
0.3920000000	graphical model
0.3920000000	temporally extended
0.3920000000	particle filters
0.3920000000	stable model
0.3920000000	target tracking
0.3920000000	conceptual spaces
0.3910000000	low rank tensor completion
0.3910000000	exponential family distributions
0.3910000000	belief propagation lbp
0.3910000000	twin support vector
0.3910000000	received much attention
0.3910000000	cardiac mr images
0.3910000000	on cifar 10
0.3910000000	generalization error bound
0.3910000000	the k means
0.3910000000	the empirical risk
0.3910000000	the embedding space
0.3910000000	transition based parser
0.3910000000	the well founded
0.3910000000	social sciences
0.3910000000	sar image
0.3910000000	image matching
0.3910000000	visual sentiment
0.3910000000	comparative analysis
0.3910000000	parallel sgd
0.3910000000	caption generation
0.3910000000	the data
0.3910000000	the shape
0.3910000000	the search
0.3910000000	the learning
0.3910000000	the reward
0.3910000000	the regularization
0.3910000000	the depth
0.3910000000	bipartite graphs
0.3910000000	an alternative
0.3910000000	lidar point
0.3910000000	outdoor environments
0.3910000000	nmt models
0.3910000000	leading eigenvectors
0.3910000000	brain magnetic
0.3910000000	gaussian kernel
0.3910000000	perform well
0.3910000000	fisher information
0.3910000000	hierarchical representations
0.3910000000	additive models
0.3910000000	encoder decoders
0.3910000000	document images
0.3910000000	a unified
0.3910000000	vehicle detection
0.3910000000	percentage points
0.3900000000	machine learning and data mining
0.3900000000	speech recognition asr systems
0.3900000000	black box variational inference
0.3900000000	restricted boltzmann machine rbm
0.3900000000	forward backward greedy
0.3900000000	humans and animals
0.3900000000	exploding gradient problem
0.3900000000	stochastic block models
0.3900000000	regularized m estimators
0.3900000000	restricted strong convexity
0.3900000000	a finite set
0.3900000000	the chinese restaurant
0.3900000000	single task learning
0.3900000000	subset selection problem
0.3900000000	gained increasing
0.3900000000	face spoofing
0.3900000000	parallel version
0.3900000000	facial key
0.3900000000	principal curves
0.3900000000	policy learning
0.3900000000	covariance function
0.3900000000	expression recognition
0.3900000000	consistently outperforms
0.3900000000	the detection
0.3900000000	the uncertainty
0.3900000000	the loss
0.3900000000	the distance
0.3900000000	the class
0.3900000000	the gradient
0.3900000000	the knowledge
0.3900000000	the attention
0.3900000000	the interaction
0.3900000000	the attributes
0.3900000000	channel coding
0.3900000000	arbitrary set
0.3900000000	low bit
0.3900000000	argument components
0.3900000000	motion prediction
0.3900000000	voice activity
0.3900000000	sense disambiguation
0.3900000000	based object
0.3900000000	robust speech
0.3900000000	bp algorithm
0.3900000000	large collections
0.3900000000	numerically stable
0.3900000000	mt systems
0.3900000000	a learning
0.3900000000	a large
0.3900000000	sigma 2
0.3890000000	10 and cifar 100
0.3890000000	pre trained word embeddings
0.3890000000	a higher level
0.3890000000	at different levels
0.3890000000	the loss function
0.3890000000	phrase based machine
0.3890000000	a limited number
0.3890000000	domain adaptation da
0.3890000000	transition based dependency
0.3890000000	large vocabulary speech
0.3890000000	cross language information
0.3890000000	the covariance matrix
0.3890000000	sparse codes
0.3890000000	users based
0.3890000000	grained categorization
0.3890000000	rely heavily
0.3890000000	langevin dynamics
0.3890000000	dimensional subspace
0.3890000000	supervised dimension
0.3890000000	different types
0.3890000000	electronic medical
0.3890000000	distant speech
0.3890000000	the representation
0.3890000000	the log
0.3890000000	the set
0.3890000000	the product
0.3890000000	the question
0.3890000000	the motion
0.3890000000	the mixture
0.3890000000	the semantic
0.3890000000	the neural
0.3890000000	the embedding
0.3890000000	the region
0.3890000000	the frequency
0.3890000000	rts games
0.3890000000	programming asp
0.3890000000	foreign language
0.3890000000	very challenging
0.3890000000	criteria based
0.3890000000	mathcal d
0.3890000000	based sparse
0.3890000000	mild cognitive
0.3890000000	penalized maximum
0.3890000000	spoken term
0.3890000000	optimal control
0.3890000000	images captured
0.3890000000	log polar
0.3890000000	heavily rely
0.3890000000	convolutional dictionary
0.3890000000	smoothly varying
0.3890000000	a lot
0.3890000000	relu neural
0.3890000000	fuzzy neural
0.3880000000	non rigid structure from motion
0.3880000000	multi task feature learning
0.3880000000	both synthetic and real
0.3880000000	transition based dependency parsing
0.3880000000	clinical decision support
0.3880000000	a high resolution
0.3880000000	partially observable environments
0.3880000000	the proposed model
0.3880000000	a crucial role
0.3880000000	non native speakers
0.3880000000	multi objective evolutionary
0.3880000000	policy gradient methods
0.3880000000	algorithm selection
0.3880000000	word similarity
0.3880000000	knowledge graphs
0.3880000000	resonance imaging
0.3880000000	semi markov
0.3880000000	chronological order
0.3880000000	extremal optimization
0.3880000000	oriented gradients
0.3880000000	salient features
0.3880000000	the distribution
0.3880000000	the training
0.3880000000	tracking algorithms
0.3880000000	the presence
0.3880000000	the theory
0.3880000000	the framework
0.3880000000	online social
0.3880000000	causal model
0.3880000000	hessian free
0.3880000000	memory networks
0.3880000000	path finding
0.3880000000	misclassification rate
0.3880000000	quantum mechanical
0.3880000000	likelihood free
0.3880000000	chord recognition
0.3880000000	with respect
0.3880000000	neural turing
0.3880000000	intrinsic properties
0.3880000000	maximum correntropy
0.3880000000	a data
0.3880000000	cepstral coefficients
0.3870000000	graph based semi supervised learning
0.3870000000	student s t
0.3870000000	continuous control tasks
0.3870000000	3d point cloud
0.3870000000	k nearest neighbor
0.3870000000	conditional restricted boltzmann
0.3870000000	human machine interaction
0.3870000000	evolutionary multi objective
0.3870000000	angular resolution diffusion
0.3870000000	game tree search
0.3870000000	this approach
0.3870000000	textual descriptions
0.3870000000	parallel implementation
0.3870000000	submodular function
0.3870000000	policy gradients
0.3870000000	travel times
0.3870000000	the sp
0.3870000000	the tasks
0.3870000000	the fourier
0.3870000000	the markov
0.3870000000	the state
0.3870000000	the risk
0.3870000000	the nodes
0.3870000000	approximate bayesian
0.3870000000	rule based
0.3870000000	compressive imaging
0.3870000000	crime scene
0.3870000000	communication efficient
0.3870000000	of deep
0.3870000000	scales linearly
0.3870000000	latent states
0.3870000000	based machine
0.3870000000	easily extended
0.3870000000	optimal policy
0.3870000000	heavily dependent
0.3870000000	well defined
0.3870000000	classification based
0.3870000000	dialect identification
0.3860000000	variable graphical model selection via convex
0.3860000000	the kullback leibler kl
0.3860000000	both simulated and real
0.3860000000	real and synthetic data
0.3860000000	a source domain
0.3860000000	part of speech
0.3860000000	positive definite matrices
0.3860000000	pre trained models
0.3860000000	object tracking mot
0.3860000000	bayesian belief networks
0.3860000000	differential equations pdes
0.3860000000	the input image
0.3860000000	knowledge about
0.3860000000	illumination estimation
0.3860000000	integer program
0.3860000000	genetic operators
0.3860000000	modal hashing
0.3860000000	special case
0.3860000000	results obtained
0.3860000000	statistical language
0.3860000000	written texts
0.3860000000	owl 2
0.3860000000	audio tagging
0.3860000000	the point
0.3860000000	the words
0.3860000000	the variance
0.3860000000	the feature
0.3860000000	the surface
0.3860000000	the topic
0.3860000000	the low
0.3860000000	the gaussian
0.3860000000	the style
0.3860000000	possibly infinite
0.3860000000	historical documents
0.3860000000	automated cardiac
0.3860000000	partial occlusion
0.3860000000	more importantly
0.3860000000	mathcal e
0.3860000000	secret image
0.3860000000	an unsupervised
0.3860000000	crisis response
0.3860000000	parameter alpha
0.3860000000	based planning
0.3860000000	self organised
0.3860000000	confounding factors
0.3860000000	amr parsing
0.3860000000	n log
0.3860000000	internal representations
0.3860000000	disease diagnosis
0.3860000000	short texts
0.3860000000	probabilistic graphical
0.3860000000	in addition
0.3850000000	fully convolutional neural network
0.3850000000	the feature space
0.3850000000	actor critic algorithms
0.3850000000	mean average precision
0.3850000000	street view images
0.3850000000	a small set
0.3850000000	taken into consideration
0.3850000000	deep learning framework
0.3850000000	with expert advice
0.3850000000	english spanish
0.3850000000	positively correlated
0.3850000000	tree reweighted
0.3850000000	ctr prediction
0.3850000000	wavelet frame
0.3850000000	language pairs
0.3850000000	language model
0.3850000000	dictionary elements
0.3850000000	the multi
0.3850000000	simple regret
0.3850000000	all kinds
0.3850000000	tremendous amount
0.3850000000	clustering categorical
0.3850000000	systematic review
0.3850000000	dice similarity
0.3850000000	stable matching
0.3850000000	finite automata
0.3850000000	nmt systems
0.3850000000	monolingual corpora
0.3850000000	overlapping patches
0.3850000000	brain tumors
0.3850000000	video classification
0.3850000000	text spotting
0.3850000000	well studied
0.3850000000	reconstructed images
0.3850000000	function approximator
0.3850000000	in order
0.3840000000	recent advances in deep learning
0.3840000000	hierarchical dirichlet process hdp
0.3840000000	fuzzy c means clustering
0.3840000000	the knowledge base
0.3840000000	hyperspectral image hsi
0.3840000000	convex optimization problems
0.3840000000	a fully automatic
0.3840000000	local feature descriptors
0.3840000000	accelerated proximal gradient
0.3840000000	grained category
0.3840000000	image forgery
0.3840000000	image deconvolution
0.3840000000	special purpose
0.3840000000	commonly referred
0.3840000000	theoretically sound
0.3840000000	the score
0.3840000000	the labels
0.3840000000	signed networks
0.3840000000	local learning
0.3840000000	ln n
0.3840000000	reconstruction error
0.3840000000	broad coverage
0.3840000000	dialogue systems
0.3840000000	external memory
0.3840000000	mathematical model
0.3840000000	growing body
0.3840000000	stacked generalization
0.3840000000	n times
0.3840000000	gaussian distributions
0.3840000000	label noise
0.3840000000	neural net
0.3840000000	distributed data
0.3840000000	rapid advances
0.3840000000	formally define
0.3830000000	gaussian process gp models
0.3830000000	deep neural network architectures
0.3830000000	face detection and recognition
0.3830000000	a markov decision process
0.3830000000	latent factor models
0.3830000000	nature inspired algorithms
0.3830000000	direct policy search
0.3830000000	neural network language
0.3830000000	rain image
0.3830000000	manifold learning
0.3830000000	extensive evaluation
0.3830000000	high levels
0.3830000000	processes mdps
0.3830000000	person images
0.3830000000	deep model
0.3830000000	provably correct
0.3830000000	microscopy em
0.3830000000	the condition
0.3830000000	aesthetic quality
0.3830000000	mdl principle
0.3830000000	imbalanced data
0.3830000000	omega n
0.3830000000	conditional image
0.3830000000	based question
0.3830000000	based clustering
0.3830000000	non negative
0.3830000000	classification loss
0.3830000000	weight updates
0.3820000000	computer vision and natural language processing
0.3820000000	the de facto standard
0.3820000000	total variation tv regularization
0.3820000000	approach to natural language
0.3820000000	source and target data
0.3820000000	nearest neighbor k nn
0.3820000000	multi class classification problems
0.3820000000	markov model hmm based
0.3820000000	variational inference svi
0.3820000000	abductive logic programming
0.3820000000	a learning algorithm
0.3820000000	latent feature models
0.3820000000	the cma es
0.3820000000	action unit detection
0.3820000000	adaptive neuro fuzzy
0.3820000000	sparse bayesian
0.3820000000	sub populations
0.3820000000	sentence representations
0.3820000000	correlation matrix
0.3820000000	energy forecasting
0.3820000000	brats 2017
0.3820000000	visual semantic
0.3820000000	curve evolution
0.3820000000	moment matching
0.3820000000	head driven
0.3820000000	resolution satellite
0.3820000000	natural scene
0.3820000000	high spatial
0.3820000000	line handwritten
0.3820000000	remarkable success
0.3820000000	health related
0.3820000000	biometric template
0.3820000000	the test
0.3820000000	the measure
0.3820000000	learning word
0.3820000000	constraint solvers
0.3820000000	semantic analysis
0.3820000000	communication overhead
0.3820000000	motion segmentation
0.3820000000	extract features
0.3820000000	pairwise distances
0.3820000000	based deep
0.3820000000	measure based
0.3820000000	vocabulary speech
0.3820000000	scaling mds
0.3820000000	random features
0.3820000000	networks trained
0.3810000000	graphical model selection via convex optimization
0.3810000000	multiple target tracking
0.3810000000	the condition number
0.3810000000	hate speech detection
0.3810000000	the vc dimension
0.3810000000	the optimization problem
0.3810000000	the perceptual quality
0.3810000000	the frank wolfe
0.3810000000	massive amounts of
0.3810000000	single pixel imaging
0.3810000000	sentence level
0.3810000000	model counting
0.3810000000	supervised deep
0.3810000000	stochastic convex
0.3810000000	domain knowledge
0.3810000000	moving object
0.3810000000	rational agents
0.3810000000	the character
0.3810000000	the labeled
0.3810000000	the fixed
0.3810000000	dermoscopic images
0.3810000000	assisted living
0.3810000000	true positive
0.3810000000	column generation
0.3810000000	hardness results
0.3810000000	stance classification
0.3810000000	nodule classification
0.3810000000	data association
0.3810000000	based features
0.3810000000	age estimation
0.3810000000	f measure
0.3810000000	computational properties
0.3810000000	similar results
0.3810000000	average pooling
0.3810000000	a belief
0.3810000000	a depth
0.3800000000	salt and pepper noise
0.3800000000	data to text systems
0.3800000000	semi supervised learning methods
0.3800000000	approximate nearest neighbor ann
0.3800000000	past few decades
0.3800000000	regularized least squares
0.3800000000	the polynomial hierarchy
0.3800000000	detection and segmentation
0.3800000000	facial images
0.3800000000	supervised machine
0.3800000000	visual patterns
0.3800000000	orientation estimation
0.3800000000	fixation prediction
0.3800000000	the bayes
0.3800000000	the synthetic
0.3800000000	the network
0.3800000000	strategies based
0.3800000000	learning to
0.3800000000	developing countries
0.3800000000	color channel
0.3800000000	hyperbolic space
0.3800000000	state representation
0.3800000000	semantic wiki
0.3800000000	randomized block
0.3800000000	an iterative
0.3800000000	to deal
0.3800000000	translation models
0.3800000000	multi instance
0.3800000000	cognitive architecture
0.3800000000	bi lstms
0.3800000000	forward pass
0.3800000000	overlapping groups
0.3800000000	bayesian linear
0.3800000000	bayesian models
0.3800000000	segmentation masks
0.3790000000	the kullback leibler divergence
0.3790000000	number of hidden states
0.3790000000	iterative hard thresholding
0.3790000000	distributionally robust optimization
0.3790000000	qualitative spatial reasoning
0.3790000000	a data set
0.3790000000	the question of
0.3790000000	tensor nuclear norm
0.3790000000	fixed rank
0.3790000000	this kind
0.3790000000	robotic grasp
0.3790000000	program synthesis
0.3790000000	lipschitz constant
0.3790000000	image analysis
0.3790000000	geometric properties
0.3790000000	high computational
0.3790000000	drug response
0.3790000000	line drawings
0.3790000000	atmospheric light
0.3790000000	the split
0.3790000000	the partition
0.3790000000	human gaze
0.3790000000	data matrix
0.3790000000	noise contrastive
0.3790000000	based search
0.3790000000	uniformly distributed
0.3790000000	newton type
0.3790000000	predictive analytics
0.3790000000	overlapping communities
0.3790000000	rank pooling
0.3790000000	texture images
0.3780000000	region proposal network rpn
0.3780000000	belief propagation bp algorithm
0.3780000000	kernel canonical correlation analysis
0.3780000000	variance reduced stochastic gradient
0.3780000000	weakly supervised object detection
0.3780000000	speech to text translation
0.3780000000	phrase based machine translation
0.3780000000	0 p 1
0.3780000000	signal to noise
0.3780000000	provide sufficient conditions
0.3780000000	full reference image
0.3780000000	discrete event systems
0.3780000000	morphologically rich language
0.3780000000	adversarial nets gans
0.3780000000	the non convex
0.3780000000	the input data
0.3780000000	the decision maker
0.3780000000	likelihood free inference
0.3780000000	log concave distributions
0.3780000000	structured learning
0.3780000000	covariance functions
0.3780000000	rare words
0.3780000000	sp theory
0.3780000000	audio source
0.3780000000	iterative reconstruction
0.3780000000	the results
0.3780000000	the fitness
0.3780000000	mutation rates
0.3780000000	marginal probabilities
0.3780000000	argument component
0.3780000000	valued logic
0.3780000000	epistemic states
0.3780000000	nonconvex penalty
0.3780000000	emotion intensity
0.3780000000	multi robot
0.3780000000	soft constraint
0.3780000000	corresponds to
0.3780000000	linked open
0.3780000000	variational lower
0.3780000000	wind power
0.3770000000	information compression by multiple alignment unification
0.3770000000	the problem of learning
0.3770000000	semantic web services
0.3770000000	the training data
0.3770000000	k nearest neighbour
0.3770000000	the lower bound
0.3770000000	the classification performance
0.3770000000	the features of
0.3770000000	skin lesion analysis
0.3770000000	clinical records
0.3770000000	rapidly growing
0.3770000000	improves upon
0.3770000000	negative samples
0.3770000000	oriented dialogue
0.3770000000	bayes net
0.3770000000	the generative
0.3770000000	discovery radiomics
0.3770000000	causal structure
0.3770000000	marl algorithms
0.3770000000	hopfield network
0.3770000000	significant gains
0.3770000000	fusion method
0.3770000000	working memory
0.3770000000	synthetic images
0.3770000000	belief space
0.3770000000	temporal expressions
0.3770000000	hyperspectral data
0.3760000000	sets of probability measures
0.3760000000	semantics for logic programs
0.3760000000	approach to machine translation
0.3760000000	kernel density estimator
0.3760000000	automatic text summarization
0.3760000000	hitting time
0.3760000000	depth image
0.3760000000	single linkage
0.3760000000	relational databases
0.3760000000	question generation
0.3760000000	underwater images
0.3760000000	dependency trees
0.3760000000	multidimensional scaling
0.3760000000	group activity
0.3760000000	horizon markov
0.3760000000	dropout regularization
0.3760000000	the artificial
0.3760000000	the ell
0.3760000000	wise relevance
0.3760000000	the cross
0.3760000000	learning neural
0.3760000000	cooperative multi
0.3760000000	constraint solver
0.3760000000	originally designed
0.3760000000	semantic structure
0.3760000000	partial membership
0.3760000000	mathcal f
0.3760000000	distance measure
0.3760000000	qualitative preferences
0.3760000000	rl agent
0.3760000000	data based
0.3760000000	quantum particle
0.3760000000	density peaks
0.3760000000	graph data
0.3760000000	cognitive processes
0.3760000000	collision free
0.3760000000	text normalization
0.3760000000	segmentation method
0.3760000000	phone camera
0.3760000000	function rbf
0.3750000000	accuracy and computational cost
0.3750000000	extreme multi label classification
0.3750000000	wireless sensor network
0.3750000000	augmented naive bayes
0.3750000000	description logic dl
0.3750000000	a random forest
0.3750000000	land cover classification
0.3750000000	the recognition of
0.3750000000	mini batch gradient
0.3750000000	mini batch stochastic
0.3750000000	significant speed ups
0.3750000000	mixed pixels
0.3750000000	face photo
0.3750000000	fact checking
0.3750000000	language learning
0.3750000000	winner take
0.3750000000	integrity constraints
0.3750000000	unknown words
0.3750000000	gradient boosted
0.3750000000	greatly reduces
0.3750000000	domain invariant
0.3750000000	smoothness assumptions
0.3750000000	traffic management
0.3750000000	conflicting sources
0.3750000000	iterative refinement
0.3750000000	planning domains
0.3750000000	the domain
0.3750000000	the architecture
0.3750000000	the sample
0.3750000000	survival analysis
0.3750000000	an ensemble
0.3750000000	proximal operators
0.3750000000	target language
0.3750000000	landmark localisation
0.3750000000	newton method
0.3750000000	predictive coding
0.3750000000	collective decision
0.3750000000	rules based
0.3750000000	reproducing kernel
0.3750000000	mt evaluation
0.3750000000	a theory
0.3740000000	synthetic and real data
0.3740000000	mathbb r m
0.3740000000	parametric speech synthesis
0.3740000000	weighted nuclear norm
0.3740000000	attracted considerable attention
0.3740000000	distribution algorithm
0.3740000000	image blocks
0.3740000000	stage detectors
0.3740000000	distributional measures
0.3740000000	separable convolutions
0.3740000000	drug target
0.3740000000	health monitoring
0.3740000000	deep metric
0.3740000000	centrality measures
0.3740000000	occlusion boundaries
0.3740000000	driver behavior
0.3740000000	lossy image
0.3740000000	regularized logistic
0.3740000000	confidence interval
0.3740000000	autonomous underwater
0.3740000000	the optimization
0.3740000000	the vector
0.3740000000	symbolic regression
0.3740000000	matrix inversion
0.3740000000	the reconstruction
0.3740000000	the covariance
0.3740000000	feature descriptor
0.3740000000	aging process
0.3740000000	to end
0.3740000000	noise model
0.3740000000	large variations
0.3740000000	meta heuristic
0.3740000000	entity pair
0.3740000000	video recognition
0.3740000000	document level
0.3740000000	hyperspectral imaging
0.3730000000	closed loop control
0.3730000000	pixel level annotations
0.3730000000	active contour models
0.3730000000	machine learning models
0.3730000000	mahalanobis distance metric
0.3730000000	n log n
0.3730000000	principal components analysis
0.3730000000	vessel segmentation
0.3730000000	user behavior
0.3730000000	window sizes
0.3730000000	much higher
0.3730000000	equilibrium logic
0.3730000000	visual and
0.3730000000	image inpainting
0.3730000000	recognizing textual
0.3730000000	deep rl
0.3730000000	sp machine
0.3730000000	representational power
0.3730000000	the saliency
0.3730000000	the real
0.3730000000	the space
0.3730000000	physics based
0.3730000000	syllable networks
0.3730000000	approximate posterior
0.3730000000	linear equations
0.3730000000	bilateral filters
0.3730000000	surgical scene
0.3730000000	search algorithm
0.3730000000	vqa models
0.3730000000	an overview
0.3730000000	briefly discuss
0.3730000000	acquisition function
0.3730000000	quality measures
0.3730000000	attracted increasing
0.3730000000	well understood
0.3730000000	common knowledge
0.3730000000	scene images
0.3730000000	security experts
0.3730000000	leaf level
0.3720000000	simulated and real world
0.3720000000	point process model
0.3720000000	the riemannian manifold
0.3720000000	interval type 2
0.3720000000	bayesian computation abc
0.3720000000	the pascal voc
0.3720000000	an efficient algorithm
0.3720000000	gradient boosted trees
0.3720000000	out of sample
0.3720000000	mobile visual
0.3720000000	upper approximations
0.3720000000	much more
0.3720000000	image super
0.3720000000	hr image
0.3720000000	image stitching
0.3720000000	gradient methods
0.3720000000	gradient estimates
0.3720000000	hard thresholding
0.3720000000	the prediction
0.3720000000	the input
0.3720000000	the analysis
0.3720000000	color space
0.3720000000	positive samples
0.3720000000	riemannian metric
0.3720000000	kernel regression
0.3720000000	automatic detection
0.3720000000	auxiliary variables
0.3720000000	malicious users
0.3720000000	datalog programs
0.3720000000	risk factors
0.3720000000	proximity operator
0.3720000000	2017 skin
0.3720000000	hierarchical classification
0.3720000000	object motion
0.3720000000	object level
0.3720000000	segmentation methods
0.3720000000	post synaptic
0.3720000000	plain text
0.3710000000	recognition using convolutional neural
0.3710000000	ms coco dataset
0.3710000000	stochastic differential equations
0.3710000000	the proximity operator
0.3710000000	the error rate
0.3710000000	chain monte carlo
0.3710000000	network in network
0.3710000000	encoding and decoding
0.3710000000	the semantic web
0.3710000000	temporally extended actions
0.3710000000	rely on
0.3710000000	ct images
0.3710000000	arithmetic operations
0.3710000000	face shape
0.3710000000	basis vectors
0.3710000000	emd based
0.3710000000	greatly reduced
0.3710000000	spatial resolutions
0.3710000000	each other
0.3710000000	visible face
0.3710000000	the solution
0.3710000000	the subset
0.3710000000	the structure
0.3710000000	the weight
0.3710000000	important applications
0.3710000000	descent method
0.3710000000	variate gaussian
0.3710000000	co saliency
0.3710000000	skeleton sequences
0.3710000000	dialogue management
0.3710000000	mild assumptions
0.3710000000	conflict driven
0.3710000000	object interactions
0.3710000000	gan training
0.3710000000	bayesian methods
0.3710000000	object class
0.3710000000	error correcting
0.3710000000	market price
0.3700000000	dictionary learning and sparse
0.3700000000	sparse coding and dictionary
0.3700000000	artificial and real world
0.3700000000	available for download
0.3700000000	finite state machines
0.3700000000	word to word
0.3700000000	online learning algorithms
0.3700000000	thought of as
0.3700000000	the optimization of
0.3700000000	international workshop on
0.3700000000	the scale of
0.3700000000	trust region policy
0.3700000000	stochastic quasi newton
0.3700000000	the rank of
0.3700000000	answer extraction
0.3700000000	ultrasound images
0.3700000000	upper bounded
0.3700000000	relational learning
0.3700000000	convex regularization
0.3700000000	stochastic gradients
0.3700000000	3d human
0.3700000000	quadratic program
0.3700000000	foreground background
0.3700000000	discovering causal
0.3700000000	affinity matrix
0.3700000000	the components
0.3700000000	the convergence
0.3700000000	the backbone
0.3700000000	the actions
0.3700000000	manual annotations
0.3700000000	take advantage
0.3700000000	diffusion imaging
0.3700000000	structural equation
0.3700000000	batch mode
0.3700000000	self organized
0.3700000000	recent advancements
0.3700000000	noise injection
0.3700000000	latent features
0.3700000000	null hypothesis
0.3700000000	component analysis
0.3700000000	deeply supervised
0.3700000000	ai agents
0.3700000000	weight initialization
0.3700000000	strips planning
0.3690000000	neural network language models
0.3690000000	supervised and semi supervised
0.3690000000	computing with words
0.3690000000	naive bayes classifiers
0.3690000000	the basic idea
0.3690000000	the basis of
0.3690000000	in mathbb r
0.3690000000	first order methods
0.3690000000	fast r cnn
0.3690000000	the presence of
0.3690000000	log linear models
0.3690000000	one of
0.3690000000	transfer knowledge
0.3690000000	person pose
0.3690000000	supervised topic
0.3690000000	p x
0.3690000000	stochastic admm
0.3690000000	significantly better
0.3690000000	contextual cues
0.3690000000	many applications
0.3690000000	spatial relations
0.3690000000	group feature
0.3690000000	the probability
0.3690000000	not only
0.3690000000	the weights
0.3690000000	the performance
0.3690000000	the order
0.3690000000	uncertainty calculi
0.3690000000	vanishing points
0.3690000000	compressive measurements
0.3690000000	speech signals
0.3690000000	complexity bounds
0.3690000000	nesterov s
0.3690000000	aerial images
0.3690000000	very few
0.3690000000	but also
0.3690000000	more than
0.3690000000	compression scheme
0.3690000000	based outlier
0.3690000000	dialogue policy
0.3690000000	treatment effects
0.3690000000	digital ecosystem
0.3690000000	target plans
0.3690000000	surveillance videos
0.3690000000	better than
0.3690000000	brain mri
0.3690000000	alpha divergences
0.3690000000	imaging modality
0.3690000000	imaging modalities
0.3690000000	material recognition
0.3680000000	low signal to noise
0.3680000000	signal processing and machine
0.3680000000	inspired by recent advances
0.3680000000	experiments on real world
0.3680000000	the same time
0.3680000000	the entropy of
0.3680000000	through extensive experiments
0.3680000000	gradient based optimization
0.3680000000	the agent s
0.3680000000	a supervised learning
0.3680000000	the classification of
0.3680000000	the learning of
0.3680000000	image forgery detection
0.3680000000	multi way data
0.3680000000	word usage
0.3680000000	bias correction
0.3680000000	strong performance
0.3680000000	referred to
0.3680000000	deep cnn
0.3680000000	detecting small
0.3680000000	the phase
0.3680000000	the wavelet
0.3680000000	the problems
0.3680000000	the sign
0.3680000000	the transfer
0.3680000000	achieves competitive
0.3680000000	semantic orientation
0.3680000000	robust optimization
0.3680000000	hierarchically structured
0.3680000000	missing data
0.3680000000	computationally cheap
0.3680000000	interpretable machine
0.3680000000	eeg data
0.3680000000	streaming pca
0.3680000000	belief function
0.3680000000	belief state
0.3680000000	handwritten mathematical
0.3680000000	multilabel classification
0.3680000000	even though
0.3680000000	cp logic
0.3680000000	phrase pairs
0.3680000000	document representations
0.3680000000	in image
0.3680000000	a new
0.3680000000	boosted decision
0.3680000000	pronoun resolution
0.3670000000	a recurrent neural network rnn
0.3670000000	object detection and semantic segmentation
0.3670000000	becoming more and more
0.3670000000	field of reinforcement learning
0.3670000000	in mathbb r n
0.3670000000	class of models
0.3670000000	bayesian network structure
0.3670000000	deep boltzmann machines
0.3670000000	the top k
0.3670000000	predictive state representations
0.3670000000	the low level
0.3670000000	multi person tracking
0.3670000000	resource poor languages
0.3670000000	policy search algorithms
0.3670000000	web navigation
0.3670000000	phoneme recognition
0.3670000000	user profiles
0.3670000000	inception score
0.3670000000	word alignment
0.3670000000	formal definition
0.3670000000	arabic language
0.3670000000	timing dependent
0.3670000000	traffic light
0.3670000000	theta n
0.3670000000	traffic flows
0.3670000000	eigen decomposition
0.3670000000	gene selection
0.3670000000	audio signals
0.3670000000	modern machine
0.3670000000	focus on
0.3670000000	the coco
0.3670000000	block sparse
0.3670000000	the genetic
0.3670000000	process discovery
0.3670000000	color distortion
0.3670000000	approximate newton
0.3670000000	active object
0.3670000000	binary mask
0.3670000000	color images
0.3670000000	continuous variables
0.3670000000	memory network
0.3670000000	lstm network
0.3670000000	euclidean distances
0.3670000000	spectral information
0.3670000000	depends strongly
0.3670000000	normal programs
0.3670000000	label distribution
0.3670000000	fold cross
0.3670000000	weight normalization
0.3670000000	probability densities
0.3670000000	a topic
0.3670000000	texture cues
0.3670000000	a novel
0.3660000000	a markov chain monte carlo
0.3660000000	increasing attention in recent
0.3660000000	based on recurrent neural
0.3660000000	sparse principal component
0.3660000000	handwritten digits dataset
0.3660000000	the proceedings of
0.3660000000	cold start problem
0.3660000000	effective and efficient
0.3660000000	mnist and cifar
0.3660000000	input and output
0.3660000000	speed and accuracy
0.3660000000	shed light on
0.3660000000	the trained network
0.3660000000	nonlinear dynamical
0.3660000000	this work
0.3660000000	improve upon
0.3660000000	language models
0.3660000000	classifiers based
0.3660000000	wider range
0.3660000000	algorithmic stability
0.3660000000	do not
0.3660000000	region proposals
0.3660000000	the audio
0.3660000000	confidence scores
0.3660000000	such as
0.3660000000	human intelligence
0.3660000000	collaborative representation
0.3660000000	clustering algorithm
0.3660000000	iterated local
0.3660000000	transition based
0.3660000000	proven effective
0.3660000000	evolutionary computing
0.3660000000	compact bilinear
0.3660000000	based action
0.3660000000	parameter server
0.3660000000	dialogue corpus
0.3660000000	graph convolution
0.3660000000	weighted mri
0.3660000000	residual units
0.3660000000	classical logic
0.3660000000	proposal flow
0.3660000000	weighting scheme
0.3650000000	unsupervised image to image translation
0.3650000000	a multi layer perceptron
0.3650000000	rely on hand crafted
0.3650000000	a sequence to sequence
0.3650000000	the first time
0.3650000000	iterative closest point
0.3650000000	inverse covariance matrix
0.3650000000	black box complexity
0.3650000000	the error of
0.3650000000	the boundary of
0.3650000000	an extension of
0.3650000000	the running time
0.3650000000	open source software
0.3650000000	multimedia event detection
0.3650000000	efficient and effective
0.3650000000	the segmentation of
0.3650000000	semantically coherent
0.3650000000	tree projections
0.3650000000	word pairs
0.3650000000	arm identification
0.3650000000	dependent dirichlet
0.3650000000	convex problems
0.3650000000	point processes
0.3650000000	satellite image
0.3650000000	the similarity
0.3650000000	the target
0.3650000000	the definition
0.3650000000	the change
0.3650000000	the affinity
0.3650000000	the precision
0.3650000000	learning model
0.3650000000	learning generative
0.3650000000	path queries
0.3650000000	effective receptive
0.3650000000	kernel methods
0.3650000000	kernel machines
0.3650000000	reconstruction algorithms
0.3650000000	false discovery
0.3650000000	preprocessing steps
0.3650000000	ensemble classifiers
0.3650000000	task specific
0.3650000000	brain activities
0.3650000000	distributed online
0.3650000000	texture classification
0.3650000000	hyperspectral imagery
0.3650000000	hamming loss
0.3640000000	a partially observable markov decision
0.3640000000	the number of data points
0.3640000000	practice of logic programming
0.3640000000	the rate of convergence
0.3640000000	number of data points
0.3640000000	the number of nodes
0.3640000000	make use of
0.3640000000	the training of
0.3640000000	the language of
0.3640000000	the detection of
0.3640000000	the attention mechanism
0.3640000000	sign language recognition
0.3640000000	a loop cutset
0.3640000000	neural turing machines
0.3640000000	the gradient of
0.3640000000	support vector regression
0.3640000000	hyperspectral image classification
0.3640000000	with respect to
0.3640000000	a multiple instance
0.3640000000	a variety of
0.3640000000	a model of
0.3640000000	semeval 2017 task
0.3640000000	the value function
0.3640000000	the efficacy of
0.3640000000	social interaction
0.3640000000	visual reasoning
0.3640000000	image description
0.3640000000	visual place
0.3640000000	micro expressions
0.3640000000	policy search
0.3640000000	deep cnns
0.3640000000	heat maps
0.3640000000	speeds up
0.3640000000	the model
0.3640000000	heuristic search
0.3640000000	the rate
0.3640000000	the optimal
0.3640000000	channel eeg
0.3640000000	term weighting
0.3640000000	causal graphs
0.3640000000	early stages
0.3640000000	motion information
0.3640000000	generated captions
0.3640000000	clustering methods
0.3640000000	based systems
0.3640000000	morphological analysis
0.3640000000	real images
0.3640000000	noise level
0.3640000000	transition probabilities
0.3640000000	soft attention
0.3640000000	belief network
0.3640000000	drastically reduce
0.3640000000	object instances
0.3640000000	average f1
0.3640000000	scene recognition
0.3640000000	logic circuits
0.3640000000	fuzzy rules
0.3640000000	safe screening
0.3640000000	infty norm
0.3630000000	a long short term memory
0.3630000000	end to end speech
0.3630000000	synthetic and real datasets
0.3630000000	multi objective evolutionary algorithms
0.3630000000	indoor and outdoor scenes
0.3630000000	the sp theory of
0.3630000000	ms coco datasets
0.3630000000	the solution of
0.3630000000	discrete fourier transform
0.3630000000	the set of
0.3630000000	encoder decoder network
0.3630000000	naive bayes classifier
0.3630000000	the regret of
0.3630000000	mathcal s 2
0.3630000000	on social media
0.3630000000	the work of
0.3630000000	proximal gradient method
0.3630000000	language generation nlg
0.3630000000	hierarchical agglomerative clustering
0.3630000000	the region of
0.3630000000	corrupted by noise
0.3630000000	illumination variations
0.3630000000	this family
0.3630000000	sentence embeddings
0.3630000000	virtual world
0.3630000000	rigid registration
0.3630000000	cancer diagnosis
0.3630000000	answering questions
0.3630000000	relational data
0.3630000000	stochastic subgradient
0.3630000000	discrete fourier
0.3630000000	event extraction
0.3630000000	threshold functions
0.3630000000	the relation
0.3630000000	group convolutions
0.3630000000	active sensing
0.3630000000	local consistency
0.3630000000	of neural
0.3630000000	subspace learning
0.3630000000	independence tests
0.3630000000	stereo cameras
0.3630000000	evolutionary robotics
0.3630000000	dynamic range
0.3630000000	bilingual word
0.3630000000	relative clauses
0.3630000000	well known
0.3630000000	common machine
0.3630000000	text line
0.3630000000	video based
0.3630000000	a training
0.3630000000	grasp detection
0.3620000000	10 and cifar 100 datasets
0.3620000000	the bag of visual
0.3620000000	iteratively reweighted least squares
0.3620000000	negative or neutral
0.3620000000	the problems of
0.3620000000	actor critic algorithm
0.3620000000	universal approximation property
0.3620000000	sqrt t regret
0.3620000000	object boundary detection
0.3620000000	the analysis of
0.3620000000	color and texture
0.3620000000	skip gram model
0.3620000000	low level vision
0.3620000000	symmetric positive
0.3620000000	agent reinforcement
0.3620000000	sampling methods
0.3620000000	energy functions
0.3620000000	consensus clustering
0.3620000000	image synthesis
0.3620000000	raw sensor
0.3620000000	point spread
0.3620000000	mixture model
0.3620000000	mixture density
0.3620000000	selective pressure
0.3620000000	the estimation
0.3620000000	existing vqa
0.3620000000	the family
0.3620000000	the euclidean
0.3620000000	binary variables
0.3620000000	linear bandits
0.3620000000	open data
0.3620000000	communication protocol
0.3620000000	perspective distortion
0.3620000000	knn classifier
0.3620000000	of handwritten
0.3620000000	very effective
0.3620000000	search algorithms
0.3620000000	distance function
0.3620000000	noise regime
0.3620000000	qualitative evaluations
0.3620000000	latent space
0.3620000000	an approach
0.3620000000	target words
0.3620000000	epsilon 0
0.3620000000	confusion matrix
0.3620000000	biomedical imaging
0.3620000000	guided filter
0.3620000000	temporal attention
0.3620000000	l 1
0.3620000000	phrase table
0.3620000000	monocular rgb
0.3620000000	weight update
0.3620000000	document image
0.3620000000	ordered binary
0.3610000000	end to end learning
0.3610000000	as much as possible
0.3610000000	constraint satisfaction problem csp
0.3610000000	combinatorial multi armed bandit
0.3610000000	self organizing map som
0.3610000000	inverse reinforcement learning
0.3610000000	dempster shafer belief
0.3610000000	closed form solution
0.3610000000	mean absolute percentage
0.3610000000	as well as
0.3610000000	sources of information
0.3610000000	the learning process
0.3610000000	shrinkage thresholding algorithm
0.3610000000	the effectiveness of
0.3610000000	handwritten digit recognition
0.3610000000	expensive black
0.3610000000	phase transition
0.3610000000	cs reconstruction
0.3610000000	markov model
0.3610000000	too restrictive
0.3610000000	control policy
0.3610000000	markov logic
0.3610000000	for image
0.3610000000	wider face
0.3610000000	the marginal
0.3610000000	annotation guidelines
0.3610000000	the bethe
0.3610000000	prosodic features
0.3610000000	urban traffic
0.3610000000	neighbourhood search
0.3610000000	general framework
0.3610000000	state transition
0.3610000000	fractal image
0.3610000000	conditional restricted
0.3610000000	conditional distribution
0.3610000000	crowd scenes
0.3610000000	f w
0.3610000000	sqrt d
0.3610000000	computationally infeasible
0.3610000000	agents beliefs
0.3610000000	wiener filter
0.3610000000	neural sequence
0.3610000000	unlabeled examples
0.3610000000	limited angle
0.3600000000	a deep convolutional neural network cnn
0.3600000000	the main contribution of
0.3600000000	distributed word representations
0.3600000000	of independent interest
0.3600000000	the time of
0.3600000000	rates of convergence
0.3600000000	the particle swarm
0.3600000000	the results of
0.3600000000	the partition function
0.3600000000	answer set programs
0.3600000000	the order of
0.3600000000	pieces of information
0.3600000000	theoretical and empirical
0.3600000000	computationally and statistically
0.3600000000	low rank matrices
0.3600000000	rough set model
0.3600000000	adaptive learning
0.3600000000	future trajectory
0.3600000000	much less
0.3600000000	visual inspection
0.3600000000	minimax rates
0.3600000000	ecg signals
0.3600000000	precision matrix
0.3600000000	the adaptation
0.3600000000	the semantics
0.3600000000	online algorithm
0.3600000000	decision rule
0.3600000000	human perceptions
0.3600000000	kernel approximation
0.3600000000	world datasets
0.3600000000	re identification
0.3600000000	graph models
0.3600000000	greedy algorithms
0.3600000000	meta embeddings
0.3600000000	topological relations
0.3600000000	short text
0.3600000000	sigma 0
0.3600000000	distributed deep
0.3600000000	interesting properties
0.3590000000	a pre trained convolutional neural
0.3590000000	learning using privileged information
0.3590000000	the values of
0.3590000000	real and simulated
0.3590000000	the superiority of
0.3590000000	rate of convergence
0.3590000000	a bayesian network
0.3590000000	gradient and hessian
0.3590000000	publicly available datasets
0.3590000000	the knowledge of
0.3590000000	vision and language
0.3590000000	of lung nodules
0.3590000000	take advantage of
0.3590000000	received considerable attention
0.3590000000	the purpose of
0.3590000000	at test time
0.3590000000	advantages and drawbacks
0.3590000000	generative neural
0.3590000000	window size
0.3590000000	sentence boundary
0.3590000000	discrete variables
0.3590000000	facial attribute
0.3590000000	argumentation mining
0.3590000000	the generalization
0.3590000000	the l1
0.3590000000	selective sampling
0.3590000000	denoised image
0.3590000000	hash code
0.3590000000	subspace tracking
0.3590000000	decision lists
0.3590000000	clustering problems
0.3590000000	cardiac mri
0.3590000000	universal schema
0.3590000000	intensity variations
0.3590000000	log loss
0.3590000000	task learning
0.3590000000	computing paradigms
0.3590000000	gender classification
0.3590000000	distributed learning
0.3590000000	customer feedback
0.3580000000	the minimum description length mdl
0.3580000000	up to logarithmic factors
0.3580000000	voc 2007 and 2012
0.3580000000	the ability to
0.3580000000	radial basis functions
0.3580000000	a number of
0.3580000000	artificial and real
0.3580000000	the level of
0.3580000000	strongly convex objectives
0.3580000000	the loss of
0.3580000000	histogram of oriented
0.3580000000	the uncertainty in
0.3580000000	much faster than
0.3580000000	exact and approximate
0.3580000000	fast and robust
0.3580000000	o left frac
0.3580000000	knowledge distillation
0.3580000000	recognition based
0.3580000000	model order
0.3580000000	less than
0.3580000000	network quantization
0.3580000000	image feature
0.3580000000	prediction model
0.3580000000	face detectors
0.3580000000	remarkable performance
0.3580000000	mcmc sampling
0.3580000000	shafer clustering
0.3580000000	the accuracy
0.3580000000	the pre
0.3580000000	group activities
0.3580000000	scheduled sampling
0.3580000000	learning agents
0.3580000000	information systems
0.3580000000	association measures
0.3580000000	environmental conditions
0.3580000000	observable markov
0.3580000000	indoor environment
0.3580000000	originally developed
0.3580000000	communication protocols
0.3580000000	primarily focus
0.3580000000	temporally consistent
0.3580000000	weighted majority
0.3580000000	approximation guarantees
0.3580000000	achieved impressive
0.3580000000	video analysis
0.3580000000	a state
0.3580000000	phrase translation
0.3580000000	preference statements
0.3570000000	a wide range of
0.3570000000	convolutional encoder decoder network
0.3570000000	quasi newton methods
0.3570000000	trained and tested
0.3570000000	social media platforms
0.3570000000	the distribution of
0.3570000000	signed distance function
0.3570000000	the training set
0.3570000000	quality assessment iqa
0.3570000000	the probability of
0.3570000000	the time series
0.3570000000	a natural language
0.3570000000	tracking by detection
0.3570000000	strong and weak
0.3570000000	chinese to english
0.3570000000	pieces of evidence
0.3570000000	the dimension of
0.3570000000	fixed points
0.3570000000	pre processed
0.3570000000	sparse matrix
0.3570000000	sentence representation
0.3570000000	ontology building
0.3570000000	convex constraints
0.3570000000	image content
0.3570000000	reasoning systems
0.3570000000	comprehensive survey
0.3570000000	underwater image
0.3570000000	k median
0.3570000000	deep features
0.3570000000	the support
0.3570000000	the dynamics
0.3570000000	the bag
0.3570000000	the parameters
0.3570000000	learning rules
0.3570000000	local shape
0.3570000000	action proposals
0.3570000000	surrogate models
0.3570000000	semantic instance
0.3570000000	literature review
0.3570000000	skeleton based
0.3570000000	privacy sensitive
0.3570000000	universal dependencies
0.3570000000	data samples
0.3570000000	fcm algorithm
0.3570000000	manipulation actions
0.3570000000	tensor factorizations
0.3570000000	unstructured data
0.3570000000	time varying
0.3570000000	subgraph features
0.3570000000	boosting algorithms
0.3570000000	considerably faster
0.3570000000	text generation
0.3570000000	text data
0.3570000000	brain tissue
0.3570000000	networks fcns
0.3570000000	logical relations
0.3570000000	probability models
0.3570000000	boosted trees
0.3570000000	polysemous words
0.3560000000	in natural language processing
0.3560000000	estimation of distribution algorithm
0.3560000000	quasi newton method
0.3560000000	class of loss
0.3560000000	the product of
0.3560000000	bad local minima
0.3560000000	weakly supervised semantic
0.3560000000	latent semantic analysis
0.3560000000	fuzzy inference system
0.3560000000	smooth and strongly
0.3560000000	false positive rates
0.3560000000	the evaluation of
0.3560000000	spatial pyramid matching
0.3560000000	observable markov decision
0.3560000000	web images
0.3560000000	mobile health
0.3560000000	base kernels
0.3560000000	arabic words
0.3560000000	functional mri
0.3560000000	visual similarity
0.3560000000	raw pixels
0.3560000000	network model
0.3560000000	network rpn
0.3560000000	3 d
0.3560000000	markov models
0.3560000000	scheduling problem
0.3560000000	inter subject
0.3560000000	the level
0.3560000000	the present
0.3560000000	regardless of
0.3560000000	linear optimization
0.3560000000	over time
0.3560000000	speech emotion
0.3560000000	intra cluster
0.3560000000	automatic speech
0.3560000000	method based
0.3560000000	kernel bandwidth
0.3560000000	rl algorithm
0.3560000000	functions defined
0.3560000000	inducing norms
0.3560000000	viewpoint estimation
0.3560000000	emotional states
0.3560000000	tensor data
0.3560000000	target classes
0.3560000000	translation quality
0.3560000000	optical character
0.3560000000	bad local
0.3560000000	scene layout
0.3560000000	breaking news
0.3560000000	temporal relations
0.3560000000	relu activations
0.3560000000	piecewise affine
0.3560000000	hamming space
0.3550000000	dictionary learning and sparse coding
0.3550000000	k fold cross validation
0.3550000000	data mining and machine
0.3550000000	simulated and real data
0.3550000000	sequence to sequence model
0.3550000000	mathcal o left
0.3550000000	natural language inference
0.3550000000	labeled and unlabeled
0.3550000000	2017 shared task
0.3550000000	cost sensitive learning
0.3550000000	as long as
0.3550000000	accurate and robust
0.3550000000	linear and nonlinear
0.3550000000	syntactic and semantic
0.3550000000	in recent years
0.3550000000	in order to
0.3550000000	mixed integer programming
0.3550000000	a logic program
0.3550000000	breast cancer detection
0.3550000000	the genetic algorithm
0.3550000000	algorithm to
0.3550000000	wide spread
0.3550000000	public sentiment
0.3550000000	image deblurring
0.3550000000	thanks to
0.3550000000	occlusion handling
0.3550000000	minimax regret
0.3550000000	ecg signal
0.3550000000	service composition
0.3550000000	group wise
0.3550000000	the max
0.3550000000	block wise
0.3550000000	learning graphical
0.3550000000	angular resolution
0.3550000000	partial differential
0.3550000000	according to
0.3550000000	iris segmentation
0.3550000000	protein sequences
0.3550000000	challenge lies
0.3550000000	multi output
0.3550000000	multi resolution
0.3550000000	multi domain
0.3550000000	voxel grid
0.3550000000	scene classification
0.3550000000	neural machine
0.3550000000	video summary
0.3550000000	pruning scheme
0.3550000000	tight bounds
0.3550000000	segmentation problem
0.3550000000	a knowledge
0.3550000000	da method
0.3550000000	retinal layer
0.3540000000	minimum description length principle
0.3540000000	a support vector machine
0.3540000000	the restricted boltzmann machine
0.3540000000	natural and artificial
0.3540000000	the representation of
0.3540000000	this paper presents
0.3540000000	the speed of
0.3540000000	the state space
0.3540000000	region proposal network
0.3540000000	as good as
0.3540000000	the complexity of
0.3540000000	acoustic and language
0.3540000000	natural image statistics
0.3540000000	area of research
0.3540000000	a publicly available
0.3540000000	algorithm proposed
0.3540000000	tree search
0.3540000000	boundary detection
0.3540000000	image annotation
0.3540000000	memristive devices
0.3540000000	inventory management
0.3540000000	reward function
0.3540000000	event based
0.3540000000	the correlation
0.3540000000	annotation scheme
0.3540000000	the high
0.3540000000	expression synthesis
0.3540000000	query focused
0.3540000000	local minimum
0.3540000000	learning task
0.3540000000	complementary labels
0.3540000000	lstm model
0.3540000000	estimation based
0.3540000000	human interactions
0.3540000000	kernel based
0.3540000000	received increasing
0.3540000000	an answer
0.3540000000	dnn training
0.3540000000	token level
0.3540000000	similarity matrix
0.3540000000	landmark points
0.3540000000	epsilon 2
0.3540000000	paraphrase generation
0.3540000000	neural encoder
0.3540000000	video sequence
0.3540000000	a gradient
0.3540000000	crf model
0.3530000000	a convolutional neural network cnn
0.3530000000	multi objective optimization problems
0.3530000000	mutual information mi
0.3530000000	this volume contains
0.3530000000	approach to machine
0.3530000000	accuracy and robustness
0.3530000000	number of free
0.3530000000	the joint distribution
0.3530000000	partially observable markov
0.3530000000	the user s
0.3530000000	the sp system
0.3530000000	the ratio of
0.3530000000	chinese social media
0.3530000000	the regularization parameter
0.3530000000	stacked convolutional auto
0.3530000000	trained from scratch
0.3530000000	the input and
0.3530000000	union of subspaces
0.3530000000	sets of probability
0.3530000000	the accuracy of
0.3530000000	the step size
0.3530000000	the majority class
0.3530000000	word segmentation
0.3530000000	word representation
0.3530000000	sentence similarity
0.3530000000	english wikipedia
0.3530000000	image retargeting
0.3530000000	relational semantics
0.3530000000	negative transfer
0.3530000000	ranking scores
0.3530000000	acoustic patterns
0.3530000000	minimum margin
0.3530000000	policy updates
0.3530000000	ultra low
0.3530000000	minimax lower
0.3530000000	the output
0.3530000000	mixture components
0.3530000000	the task
0.3530000000	consistently outperform
0.3530000000	the modeling
0.3530000000	pooling layers
0.3530000000	feature subset
0.3530000000	food images
0.3530000000	motion planning
0.3530000000	sat problem
0.3530000000	level abstractions
0.3530000000	reconstruction algorithm
0.3530000000	partial monitoring
0.3530000000	findings suggest
0.3530000000	evolutionary synthesis
0.3530000000	abc algorithm
0.3530000000	optimal regret
0.3530000000	grid map
0.3530000000	label correlations
0.3530000000	bayesian reinforcement
0.3530000000	temporal logic
0.3530000000	video prediction
0.3530000000	variational gaussian
0.3530000000	probability mass
0.3530000000	convolution kernels
0.3530000000	a clustering
0.3530000000	mahalanobis metric
0.3530000000	white gaussian
0.3520000000	theory and practice of logic programming
0.3520000000	partially observable markov decision process pomdp
0.3520000000	iterative shrinkage thresholding algorithm
0.3520000000	brain computer interface bci
0.3520000000	sparse principal component analysis
0.3520000000	large displacement optical flow
0.3520000000	inference in bayesian networks
0.3520000000	marginal likelihood score
0.3520000000	the marginal likelihood
0.3520000000	number of function
0.3520000000	the structure of
0.3520000000	the search space
0.3520000000	the frequency of
0.3520000000	answer set solvers
0.3520000000	the selection of
0.3520000000	facial expression synthesis
0.3520000000	minimum description length
0.3520000000	multicut problem
0.3520000000	word frequencies
0.3520000000	highly competitive
0.3520000000	molecular structure
0.3520000000	auc score
0.3520000000	visual cortex
0.3520000000	visual stimuli
0.3520000000	resolution diffusion
0.3520000000	neighbor embedding
0.3520000000	nlp tools
0.3520000000	item interaction
0.3520000000	traffic speed
0.3520000000	online reviews
0.3520000000	weakly annotated
0.3520000000	sensitivity specificity
0.3520000000	the values
0.3520000000	the trained
0.3520000000	shafer belief
0.3520000000	the em
0.3520000000	the resolution
0.3520000000	changing environments
0.3520000000	spatio spectral
0.3520000000	news article
0.3520000000	symbol recognition
0.3520000000	german english
0.3520000000	logistic loss
0.3520000000	dense optical
0.3520000000	author identification
0.3520000000	printed documents
0.3520000000	resource rich
0.3520000000	cell nuclei
0.3520000000	multi bernoulli
0.3520000000	spoken queries
0.3520000000	sparsity residual
0.3520000000	brain connectivity
0.3520000000	average auc
0.3520000000	board game
0.3520000000	cp decomposition
0.3520000000	tangent spaces
0.3520000000	factored mdps
0.3520000000	noisy image
0.3520000000	noisy channel
0.3520000000	smt systems
0.3520000000	personalized treatment
0.3520000000	outer product
0.3510000000	a markov decision process mdp
0.3510000000	an upper bound on
0.3510000000	multi task reinforcement learning
0.3510000000	a large number of
0.3510000000	weakly supervised semantic segmentation
0.3510000000	past few years
0.3510000000	the stable model
0.3510000000	super resolution sr
0.3510000000	compared to existing
0.3510000000	robust to noise
0.3510000000	the labels of
0.3510000000	vulnerable to adversarial
0.3510000000	gives rise to
0.3510000000	sparse inverse covariance
0.3510000000	spike patterns
0.3510000000	depth data
0.3510000000	turing test
0.3510000000	strong assumptions
0.3510000000	bit rate
0.3510000000	statistically consistent
0.3510000000	event streams
0.3510000000	tissue segmentation
0.3510000000	grayscale images
0.3510000000	expected utilities
0.3510000000	twitter sentiment
0.3510000000	the hidden
0.3510000000	the interpretation
0.3510000000	the shared
0.3510000000	the proximal
0.3510000000	approximate dynamic
0.3510000000	lexical diversity
0.3510000000	cooperative game
0.3510000000	structure learning
0.3510000000	graphical games
0.3510000000	marginal map
0.3510000000	concentration bounds
0.3510000000	resource sharing
0.3510000000	resource management
0.3510000000	translation invariance
0.3510000000	images corrupted
0.3510000000	uniform equivalence
0.3510000000	mri images
0.3510000000	semisupervised learning
0.3510000000	quantization loss
0.3510000000	a social
0.3510000000	4d light
0.3510000000	circle detection
0.3510000000	lda topic
0.3500000000	based on generative adversarial networks
0.3500000000	the convergence rate of
0.3500000000	a partially observable markov
0.3500000000	computed tomography ct images
0.3500000000	the class of
0.3500000000	this type of
0.3500000000	the dempster shafer
0.3500000000	train and test
0.3500000000	fast fourier transform
0.3500000000	achieved remarkable success
0.3500000000	the depth of
0.3500000000	the high level
0.3500000000	zero shot learning
0.3500000000	the field of
0.3500000000	the sequence of
0.3500000000	attracted increasing attention
0.3500000000	random field mrf
0.3500000000	shown great promise
0.3500000000	points of view
0.3500000000	clinical ct
0.3500000000	mobile platforms
0.3500000000	image patch
0.3500000000	visual representation
0.3500000000	strong independence
0.3500000000	accurate prediction
0.3500000000	the cost
0.3500000000	pooling operations
0.3500000000	causal relations
0.3500000000	manual labeling
0.3500000000	linear subspaces
0.3500000000	articulated objects
0.3500000000	shape analysis
0.3500000000	iris images
0.3500000000	protein sequence
0.3500000000	risk assessment
0.3500000000	by using
0.3500000000	disparate impact
0.3500000000	semeval 2016
0.3500000000	run length
0.3490000000	generative adversarial nets gans
0.3490000000	method does not rely
0.3490000000	a great deal of
0.3490000000	l p norm
0.3490000000	efficiency and accuracy
0.3490000000	resonance images mri
0.3490000000	in terms of
0.3490000000	encoder decoder model
0.3490000000	field of research
0.3490000000	gained increasing attention
0.3490000000	a group of
0.3490000000	sequence labeling tasks
0.3490000000	reinforcement learning algorithms
0.3490000000	by means of
0.3490000000	for image denoising
0.3490000000	n ln n
0.3490000000	the euclidean distance
0.3490000000	answer sentence selection
0.3490000000	depth of field
0.3490000000	chinese social
0.3490000000	model misspecification
0.3490000000	face datasets
0.3490000000	performance measures
0.3490000000	sequence labelling
0.3490000000	facial parts
0.3490000000	relevance feedback
0.3490000000	graphon estimation
0.3490000000	x j
0.3490000000	precision matrices
0.3490000000	the selection
0.3490000000	the appearance
0.3490000000	java implementation
0.3490000000	hypothesis class
0.3490000000	causal independence
0.3490000000	information criterion
0.3490000000	perceptual loss
0.3490000000	voice search
0.3490000000	vqa dataset
0.3490000000	very little
0.3490000000	sense induction
0.3490000000	spectral resolution
0.3490000000	data stream
0.3490000000	power flow
0.3490000000	selection methods
0.3490000000	deeply learned
0.3490000000	intrinsic dimension
0.3490000000	text regions
0.3490000000	brain mr
0.3480000000	using deep convolutional neural networks
0.3480000000	a reproducing kernel hilbert space
0.3480000000	local binary pattern lbp
0.3480000000	bayesian information criterion bic
0.3480000000	extensive experimental results demonstrate
0.3480000000	multi label video classification
0.3480000000	model based reinforcement learning
0.3480000000	augmented lagrangian method
0.3480000000	chinese english translation
0.3480000000	decision processes mdps
0.3480000000	general game playing
0.3480000000	time series data
0.3480000000	machine translation mt
0.3480000000	inputs and outputs
0.3480000000	feature extraction and
0.3480000000	o n 3
0.3480000000	the variance of
0.3480000000	randomized search heuristics
0.3480000000	multi step ahead
0.3480000000	intelligent transportation systems
0.3480000000	vector field
0.3480000000	face tracking
0.3480000000	points drawn
0.3480000000	6d object
0.3480000000	image representation
0.3480000000	ontology development
0.3480000000	markov network
0.3480000000	code mixed
0.3480000000	research problem
0.3480000000	broader class
0.3480000000	covering rough
0.3480000000	traffic signal
0.3480000000	penalty term
0.3480000000	phylogenetic tree
0.3480000000	the large
0.3480000000	iterative reweighted
0.3480000000	the computer
0.3480000000	the concepts
0.3480000000	local features
0.3480000000	learning algorithm
0.3480000000	tremendous progress
0.3480000000	semantic space
0.3480000000	pricing problem
0.3480000000	sensor fusion
0.3480000000	min cost
0.3480000000	q sigma
0.3480000000	latent semantic
0.3480000000	input output
0.3480000000	mass segmentation
0.3480000000	body shape
0.3480000000	object centric
0.3470000000	short term and long term
0.3470000000	the expectation maximization em algorithm
0.3470000000	time consuming and expensive
0.3470000000	framework for deep learning
0.3470000000	the theory of
0.3470000000	presented and discussed
0.3470000000	deep q networks
0.3470000000	singular value decompositions
0.3470000000	local search algorithms
0.3470000000	the resolution of
0.3470000000	the domain of
0.3470000000	sentence alignment
0.3470000000	user reviews
0.3470000000	knowledge extraction
0.3470000000	billion words
0.3470000000	depth sensors
0.3470000000	image aesthetic
0.3470000000	phase shifting
0.3470000000	differential geometry
0.3470000000	plate recognition
0.3470000000	the sparsity
0.3470000000	the lower
0.3470000000	the range
0.3470000000	the dimension
0.3470000000	the research
0.3470000000	region merging
0.3470000000	learning mkl
0.3470000000	pooling layer
0.3470000000	prototypical networks
0.3470000000	learning dml
0.3470000000	binary hashing
0.3470000000	open vocabulary
0.3470000000	cloud server
0.3470000000	sensor data
0.3470000000	bilevel optimization
0.3470000000	an example
0.3470000000	based negotiation
0.3470000000	quantum control
0.3470000000	task relatedness
0.3470000000	daily lives
0.3470000000	probabilistic programs
0.3470000000	ongoing research
0.3470000000	a language
0.3470000000	fuzzy soft
0.3470000000	rapid development
0.3460000000	end to end training
0.3460000000	stochastic dual coordinate
0.3460000000	the estimation of
0.3460000000	more robust to
0.3460000000	an overview of
0.3460000000	for alzheimer s
0.3460000000	the motion of
0.3460000000	the space of
0.3460000000	capable of learning
0.3460000000	graph fourier transform
0.3460000000	abnormal event detection
0.3460000000	processing unit gpu
0.3460000000	question answering vqa
0.3460000000	relatively little
0.3460000000	structured outputs
0.3460000000	formal verification
0.3460000000	arabic text
0.3460000000	wearable camera
0.3460000000	network training
0.3460000000	image transformations
0.3460000000	image slices
0.3460000000	image binarization
0.3460000000	basis pursuit
0.3460000000	unsupervised hashing
0.3460000000	as well
0.3460000000	p y
0.3460000000	geometric transformations
0.3460000000	voc 2012
0.3460000000	hashing schemes
0.3460000000	big topic
0.3460000000	biological neurons
0.3460000000	the instances
0.3460000000	the evaluation
0.3460000000	the contextual
0.3460000000	the k
0.3460000000	the short
0.3460000000	frequent words
0.3460000000	state abstraction
0.3460000000	shape descriptors
0.3460000000	td methods
0.3460000000	spontaneous facial
0.3460000000	latent dirichlet
0.3460000000	range correlations
0.3460000000	quality metrics
0.3460000000	log 2
0.3460000000	residual lstm
0.3460000000	driving patterns
0.3460000000	video content
0.3460000000	piecewise polynomial
0.3460000000	auto encoding
0.3450000000	both synthetic data and
0.3450000000	text to speech synthesis
0.3450000000	the discovery of
0.3450000000	number of parameters
0.3450000000	a deep network
0.3450000000	markov equivalence classes
0.3450000000	intra class variability
0.3450000000	linear programming lp
0.3450000000	sum i 1
0.3450000000	doesn t require
0.3450000000	for action recognition
0.3450000000	bidirectional long short
0.3450000000	sparse bayesian learning
0.3450000000	independent and identically
0.3450000000	at semeval 2017
0.3450000000	the framework of
0.3450000000	p y x
0.3450000000	directed graphical
0.3450000000	user interfaces
0.3450000000	exploration strategies
0.3450000000	sensory input
0.3450000000	compare favorably
0.3450000000	accurate estimates
0.3450000000	tone mapping
0.3450000000	the conditions
0.3450000000	the processing
0.3450000000	the complexity
0.3450000000	the trajectory
0.3450000000	speech recognizer
0.3450000000	continuous relaxation
0.3450000000	obstacle detection
0.3450000000	decision problem
0.3450000000	cnn model
0.3450000000	independence assumptions
0.3450000000	multispectral image
0.3450000000	penalized regression
0.3450000000	based models
0.3450000000	class specific
0.3450000000	variable neighborhood
0.3450000000	null space
0.3450000000	tv regularization
0.3450000000	varepsilon 2
0.3450000000	scientific fields
0.3450000000	o left
0.3450000000	bi text
0.3450000000	blind source
0.3450000000	increasing amounts
0.3450000000	white noise
0.3440000000	instance aware semantic segmentation
0.3440000000	held out data
0.3440000000	the second stage
0.3440000000	the stability of
0.3440000000	two or more
0.3440000000	discriminative correlation filters
0.3440000000	rgb d cameras
0.3440000000	intra class variance
0.3440000000	the high dimensional
0.3440000000	neuro fuzzy inference
0.3440000000	universal turing machine
0.3440000000	nearest neighbor classification
0.3440000000	the extracted features
0.3440000000	layer activations
0.3440000000	significantly worse
0.3440000000	orthogonal matching
0.3440000000	linguistic resources
0.3440000000	view registration
0.3440000000	bayes rule
0.3440000000	event pairs
0.3440000000	ml systems
0.3440000000	submodular optimization
0.3440000000	opinion terms
0.3440000000	fault detection
0.3440000000	dropout training
0.3440000000	online prediction
0.3440000000	approximate message
0.3440000000	standard gp
0.3440000000	lexical semantics
0.3440000000	aspect term
0.3440000000	food image
0.3440000000	fully differentiable
0.3440000000	human judgments
0.3440000000	achieves significant
0.3440000000	sat solving
0.3440000000	human skin
0.3440000000	bethe approximation
0.3440000000	volume sampling
0.3440000000	pairwise constraint
0.3440000000	compression rates
0.3440000000	resource languages
0.3440000000	computational burden
0.3440000000	default parameter
0.3440000000	performs poorly
0.3440000000	patches extracted
0.3440000000	video frame
0.3430000000	the number of training examples
0.3430000000	code mixed social media
0.3430000000	decision making under uncertainty
0.3430000000	cifar 100 and imagenet
0.3430000000	3d point clouds
0.3430000000	social media sites
0.3430000000	intra class variations
0.3430000000	the test set
0.3430000000	intra class variation
0.3430000000	the style of
0.3430000000	high level vision
0.3430000000	a neural network
0.3430000000	text dependent speaker
0.3430000000	the reconstruction of
0.3430000000	random fourier features
0.3430000000	the aim of
0.3430000000	method compares favorably
0.3430000000	abnormality detection
0.3430000000	regression trees
0.3430000000	gpu implementation
0.3430000000	unsupervised deep
0.3430000000	facial geometry
0.3430000000	minimum energy
0.3430000000	combines ideas
0.3430000000	predicate logic
0.3430000000	annotation effort
0.3430000000	matrix decomposition
0.3430000000	region proposal
0.3430000000	hypothesis tests
0.3430000000	deeper understanding
0.3430000000	speech perception
0.3430000000	geometry aware
0.3430000000	generated images
0.3430000000	valued fuzzy
0.3430000000	self organization
0.3430000000	easily adapted
0.3430000000	crowd flow
0.3430000000	balanced dataset
0.3430000000	pivot based
0.3430000000	time complexity
0.3430000000	external sources
0.3430000000	target vocabulary
0.3430000000	optimality condition
0.3430000000	interactive image
0.3430000000	neural model
0.3430000000	dependence measure
0.3430000000	variational auto
0.3430000000	medical records
0.3430000000	road segmentation
0.3420000000	markov chain monte carlo mcmc methods
0.3420000000	one or more
0.3420000000	the similarity of
0.3420000000	false discovery rate
0.3420000000	regularized risk minimization
0.3420000000	the source sentence
0.3420000000	the bag of
0.3420000000	each data point
0.3420000000	fine grained recognition
0.3420000000	newly created
0.3420000000	face synthesis
0.3420000000	alternates between
0.3420000000	3d object
0.3420000000	acoustic model
0.3420000000	view synthesis
0.3420000000	x and
0.3420000000	the vertices
0.3420000000	online linear
0.3420000000	ground plane
0.3420000000	speech tagging
0.3420000000	color texture
0.3420000000	cnn features
0.3420000000	multimodal translation
0.3420000000	substantially improves
0.3420000000	ell p
0.3420000000	error epsilon
0.3420000000	patch matching
0.3420000000	bayesian optimisation
0.3420000000	downstream tasks
0.3420000000	fuzzy numbers
0.3420000000	problem csp
0.3420000000	sentences based
0.3410000000	sparsity and low rank
0.3410000000	online learning algorithm for
0.3410000000	as far as
0.3410000000	the shape of
0.3410000000	average f1 score
0.3410000000	the statistics of
0.3410000000	performs on par
0.3410000000	normal logic programs
0.3410000000	speech recognition asr
0.3410000000	generalize to unseen
0.3410000000	the value of
0.3410000000	ilsvrc 2012 dataset
0.3410000000	semantically related
0.3410000000	mobile robot
0.3410000000	software effort
0.3410000000	domains ranging
0.3410000000	single image
0.3410000000	transformation based
0.3410000000	the n
0.3410000000	the mapping
0.3410000000	rate distortion
0.3410000000	rbf neural
0.3410000000	marginal distributions
0.3410000000	lstm models
0.3410000000	human interaction
0.3410000000	search based
0.3410000000	assignment problem
0.3410000000	preprocessing step
0.3410000000	regularization parameter
0.3410000000	business rules
0.3410000000	evolutionary optimization
0.3410000000	robust regression
0.3410000000	speaker independent
0.3410000000	camera views
0.3410000000	multi genre
0.3410000000	multi sensor
0.3410000000	multi atlas
0.3410000000	biomedical image
0.3410000000	paraphrase identification
0.3410000000	boolean matrix
0.3410000000	video segments
0.3410000000	networks spns
0.3410000000	rgb image
0.3410000000	distributed training
0.3410000000	variational distributions
0.3410000000	financial news
0.3400000000	an active area of research
0.3400000000	neural network trained with
0.3400000000	algorithm for k means
0.3400000000	the k means algorithm
0.3400000000	similar in spirit
0.3400000000	binary decision diagrams
0.3400000000	time and space
0.3400000000	black box variational
0.3400000000	a theoretical framework
0.3400000000	the parameters of
0.3400000000	minimax lower bound
0.3400000000	photo realistic images
0.3400000000	maximum entropy principle
0.3400000000	machine learning systems
0.3400000000	generative adversarial imitation
0.3400000000	breast cancer histology
0.3400000000	facial expression analysis
0.3400000000	chinese poetry
0.3400000000	arabic dialects
0.3400000000	semantically similar
0.3400000000	depth measurements
0.3400000000	mobile apps
0.3400000000	egocentric photo
0.3400000000	bases kbs
0.3400000000	electric vehicles
0.3400000000	rigid deformations
0.3400000000	auc optimization
0.3400000000	theoretical understanding
0.3400000000	single player
0.3400000000	hardware accelerators
0.3400000000	gmm hmm
0.3400000000	visual analytics
0.3400000000	parallel coordinate
0.3400000000	criterion bic
0.3400000000	plasticity stdp
0.3400000000	winning entry
0.3400000000	cancer histology
0.3400000000	fiber orientation
0.3400000000	sdp relaxation
0.3400000000	smart grids
0.3400000000	invasive surgery
0.3400000000	1st place
0.3400000000	reward shaping
0.3400000000	for supervised
0.3400000000	monotone submodular
0.3400000000	biometric traits
0.3400000000	autoencoders vaes
0.3400000000	leaky integrate
0.3400000000	coefficient dsc
0.3400000000	smart cities
0.3400000000	hashing lsh
0.3400000000	aesthetics assessment
0.3400000000	deformable parts
0.3400000000	scanning electron
0.3400000000	motif discovery
0.3400000000	propositional formulae
0.3400000000	predictor variables
0.3400000000	the exploration
0.3400000000	the more
0.3400000000	logics dls
0.3400000000	the behavior
0.3400000000	the one
0.3400000000	planning problem
0.3400000000	online optimization
0.3400000000	fisheye camera
0.3400000000	international workshop
0.3400000000	essay scoring
0.3400000000	curvilinear structures
0.3400000000	adjoining grammar
0.3400000000	inflected forms
0.3400000000	unsatisfiable core
0.3400000000	lexical chains
0.3400000000	units aus
0.3400000000	spectrum disorder
0.3400000000	analog neuromorphic
0.3400000000	units relus
0.3400000000	cost aggregation
0.3400000000	constraint programs
0.3400000000	forest rf
0.3400000000	articulated object
0.3400000000	dct coefficients
0.3400000000	pr2 robot
0.3400000000	intuitively appealing
0.3400000000	recently attracted
0.3400000000	lstm and
0.3400000000	means nlm
0.3400000000	google books
0.3400000000	serial section
0.3400000000	human vision
0.3400000000	partial orders
0.3400000000	bound elbo
0.3400000000	reality vr
0.3400000000	disambiguation wsd
0.3400000000	nested expressions
0.3400000000	multispectral images
0.3400000000	diffusion weighted
0.3400000000	reality ar
0.3400000000	comparable corpora
0.3400000000	to o
0.3400000000	contour detection
0.3400000000	significant performance
0.3400000000	camera wearer
0.3400000000	genre broadcast
0.3400000000	largely unsolved
0.3400000000	noise reduction
0.3400000000	latent random
0.3400000000	connectome project
0.3400000000	coreset construction
0.3400000000	recombination operator
0.3400000000	working set
0.3400000000	histological images
0.3400000000	rnn lm
0.3400000000	description svdd
0.3400000000	cognitive impairment
0.3400000000	nonconvex nonsmooth
0.3400000000	multi layered
0.3400000000	skin pixels
0.3400000000	backpropagation bp
0.3400000000	divergence cd
0.3400000000	epsilon approximation
0.3400000000	meta information
0.3400000000	coefficients mfccs
0.3400000000	intellectual property
0.3400000000	annealing sa
0.3400000000	eeg recordings
0.3400000000	hsv color
0.3400000000	extracting keyphrases
0.3400000000	forward looking
0.3400000000	ai systems
0.3400000000	and sentiment
0.3400000000	magnitude larger
0.3400000000	hierarchical dirichlet
0.3400000000	restart strategies
0.3400000000	cpu cores
0.3400000000	probability theory
0.3400000000	extensively evaluated
0.3400000000	convolution layers
0.3400000000	vehicle uav
0.3400000000	retinal blood
0.3400000000	gp ucb
0.3400000000	plant species
0.3400000000	heavy ball
0.3400000000	discussion forums
0.3400000000	cardiovascular disease
0.3400000000	ucb algorithm
0.3390000000	large amounts of training data
0.3390000000	gaussian markov random field
0.3390000000	stochastic multi armed bandits
0.3390000000	the receiver operating characteristic
0.3390000000	propagation bp algorithm
0.3390000000	monte carlo tree
0.3390000000	the support of
0.3390000000	the magnitude of
0.3390000000	approximate policy iteration
0.3390000000	the usefulness of
0.3390000000	a lower bound
0.3390000000	gray level co
0.3390000000	frank wolfe fw
0.3390000000	derivative free optimization
0.3390000000	formal languages
0.3390000000	classified according
0.3390000000	visual concepts
0.3390000000	unsupervised anomaly
0.3390000000	perturbed leader
0.3390000000	mcmc sampler
0.3390000000	cumulative regret
0.3390000000	foreground segmentation
0.3390000000	map inference
0.3390000000	modality specific
0.3390000000	potentially lead
0.3390000000	cortex v1
0.3390000000	the most
0.3390000000	the study
0.3390000000	manual segmentation
0.3390000000	hidden node
0.3390000000	causal structures
0.3390000000	weak classifiers
0.3390000000	shrinkage thresholding
0.3390000000	iris image
0.3390000000	squared loss
0.3390000000	search methods
0.3390000000	calibration parameters
0.3390000000	based learning
0.3390000000	significant boost
0.3390000000	optimality theory
0.3390000000	similarity coefficient
0.3390000000	graphics processing
0.3390000000	optimal transportation
0.3390000000	unstructured text
0.3390000000	video saliency
0.3390000000	belief fusion
0.3390000000	scene labeling
0.3390000000	observational studies
0.3390000000	video retrieval
0.3390000000	bayesian learning
0.3390000000	weight matrices
0.3390000000	slow feature
0.3390000000	a distribution
0.3390000000	multiple imputation
0.3390000000	segmentation challenge
0.3390000000	detection accuracy
0.3390000000	weighting schemes
0.3380000000	for single image super resolution
0.3380000000	expectation maximization em algorithm
0.3380000000	regularized empirical risk minimization
0.3380000000	models with hidden variables
0.3380000000	set of random variables
0.3380000000	semantic web technologies
0.3380000000	relative approach degree
0.3380000000	residual network resnet
0.3380000000	variance reduced gradient
0.3380000000	based image fusion
0.3380000000	a comparative analysis
0.3380000000	set theory rst
0.3380000000	naive bayesian classifier
0.3380000000	the uncertainty of
0.3380000000	ordered binary decision
0.3380000000	the meaning of
0.3380000000	the convergence of
0.3380000000	the semantics of
0.3380000000	image fusion techniques
0.3380000000	received increasing attention
0.3380000000	the forward and
0.3380000000	low rank representation
0.3380000000	tree kernels
0.3380000000	directed graphs
0.3380000000	goal directed
0.3380000000	mobile app
0.3380000000	jointly optimizes
0.3380000000	public goods
0.3380000000	user interests
0.3380000000	software package
0.3380000000	social feedback
0.3380000000	public benchmarks
0.3380000000	cartesian product
0.3380000000	person videos
0.3380000000	facial components
0.3380000000	node embedding
0.3380000000	hsi classification
0.3380000000	expected hitting
0.3380000000	for text
0.3380000000	surprising result
0.3380000000	theta sqrt
0.3380000000	commodity hardware
0.3380000000	wider class
0.3380000000	propagation ep
0.3380000000	the dirichlet
0.3380000000	the nearest
0.3380000000	the quantization
0.3380000000	the l
0.3380000000	improved version
0.3380000000	tracking mot
0.3380000000	characteristic roc
0.3380000000	term memory
0.3380000000	speech processing
0.3380000000	oracle inequality
0.3380000000	cnn models
0.3380000000	semantic annotations
0.3380000000	sense embeddings
0.3380000000	shape color
0.3380000000	infinite loops
0.3380000000	conditional gan
0.3380000000	camera poses
0.3380000000	membership functions
0.3380000000	multipliers admm
0.3380000000	shannon divergence
0.3380000000	task based
0.3380000000	multi index
0.3380000000	graph cut
0.3380000000	landmark locations
0.3380000000	mental lexicon
0.3380000000	body pose
0.3380000000	minibatch size
0.3380000000	spatially aware
0.3380000000	fuzzy controller
0.3370000000	hidden markov model hmm based
0.3370000000	evolutionary multi objective optimization
0.3370000000	low rank tensor recovery
0.3370000000	the question of whether
0.3370000000	proposed approach significantly improves
0.3370000000	deep learning based approaches
0.3370000000	low rank matrix factorization
0.3370000000	block coordinate descent method
0.3370000000	on early printed books
0.3370000000	learn long term dependencies
0.3370000000	hierarchical bayesian optimization algorithm
0.3370000000	learning long term dependencies
0.3370000000	attention based neural network
0.3370000000	decision process mdp
0.3370000000	spatial transformer network
0.3370000000	random graph models
0.3370000000	an algorithm for
0.3370000000	the traveling salesman
0.3370000000	the prediction of
0.3370000000	spatial transformer networks
0.3370000000	visual genome dataset
0.3370000000	language processing nlp
0.3370000000	noise contrastive estimation
0.3370000000	achieve competitive results
0.3370000000	belief function theory
0.3370000000	active research area
0.3370000000	active contour model
0.3370000000	the fisher information
0.3370000000	achieves comparable performance
0.3370000000	true positive rate
0.3370000000	safety critical systems
0.3370000000	multi instance learning
0.3370000000	encoder decoder framework
0.3370000000	experimental evaluation shows
0.3370000000	conjugate gradient algorithm
0.3370000000	inverse covariance estimation
0.3370000000	multiple choice questions
0.3370000000	hierarchical bayesian models
0.3370000000	the cost of
0.3370000000	strong theoretical guarantees
0.3370000000	valuation based systems
0.3370000000	detecting small objects
0.3370000000	instance based learning
0.3370000000	proximal gradient algorithm
0.3370000000	problem specific knowledge
0.3370000000	synthetically generated data
0.3370000000	word vector representations
0.3370000000	feature level fusion
0.3370000000	surface normal estimation
0.3370000000	spectral graph theory
0.3370000000	empirical study shows
0.3370000000	schatten p norm
0.3370000000	computational learning theory
0.3370000000	optimal control problem
0.3370000000	statistical relational learning
0.3370000000	linear temporal logic
0.3370000000	constraint satisfaction problem
0.3370000000	low shot learning
0.3370000000	layer normalization
0.3370000000	malware classification
0.3370000000	depth information
0.3370000000	inspection systems
0.3370000000	suboptimal solutions
0.3370000000	gpu accelerated
0.3370000000	accelerated gradient
0.3370000000	center loss
0.3370000000	wavelet domain
0.3370000000	deep structured
0.3370000000	quadratically constrained
0.3370000000	moving average
0.3370000000	hard combinatorial
0.3370000000	bio medical
0.3370000000	regularized risk
0.3370000000	sr method
0.3370000000	the objective
0.3370000000	the message
0.3370000000	semantic roles
0.3370000000	low snr
0.3370000000	human centric
0.3370000000	global optimality
0.3370000000	neuromorphic systems
0.3370000000	early fusion
0.3370000000	transferring knowledge
0.3370000000	epsilon iterations
0.3370000000	resource constrained
0.3370000000	considerable improvement
0.3370000000	risk management
0.3370000000	bilingual lexicon
0.3370000000	vast amount
0.3370000000	concrete examples
0.3370000000	market prediction
0.3370000000	variational approximations
0.3370000000	nonnegative matrices
0.3360000000	optimization problems in machine learning
0.3360000000	convolution neural networks cnns
0.3360000000	fully convolutional networks fcn
0.3360000000	multi objective evolutionary algorithm
0.3360000000	language processing nlp tasks
0.3360000000	low dimensional feature space
0.3360000000	large scale data analysis
0.3360000000	stochastic variance reduced gradient
0.3360000000	conduct extensive experiments on
0.3360000000	social media posts
0.3360000000	achieves performance comparable
0.3360000000	low spatial resolution
0.3360000000	the vast majority
0.3360000000	the generalization performance
0.3360000000	np complete problems
0.3360000000	language processing tasks
0.3360000000	approximate bayesian computation
0.3360000000	brain imaging data
0.3360000000	robustness to noise
0.3360000000	minimum mean square
0.3360000000	differential evolution algorithm
0.3360000000	achieves comparable results
0.3360000000	monte carlo hmc
0.3360000000	the lambek calculus
0.3360000000	extensive experimental studies
0.3360000000	continuous state spaces
0.3360000000	neural architecture search
0.3360000000	locally linear embedding
0.3360000000	pose invariant face
0.3360000000	attracted significant attention
0.3360000000	semi markov model
0.3360000000	closed world assumption
0.3360000000	image caption generation
0.3360000000	compared to previous
0.3360000000	regularized loss minimization
0.3360000000	the optimization process
0.3360000000	unsupervised object discovery
0.3360000000	data generating distribution
0.3360000000	stochastic variance reduced
0.3360000000	large state spaces
0.3360000000	sequence modeling tasks
0.3360000000	large training sets
0.3360000000	soft computing techniques
0.3360000000	armed bandit mab
0.3360000000	large text corpora
0.3360000000	computational intelligence techniques
0.3360000000	gray level image
0.3360000000	demonstrate significant performance
0.3360000000	random field crf
0.3360000000	image level annotations
0.3360000000	structured output learning
0.3360000000	expectation maximization algorithm
0.3360000000	training generative adversarial
0.3360000000	generalized zero shot
0.3360000000	main result shows
0.3360000000	new classes
0.3360000000	jointly optimize
0.3360000000	base kb
0.3360000000	mel frequency
0.3360000000	potts model
0.3360000000	empirical mode
0.3360000000	bit strings
0.3360000000	background foreground
0.3360000000	point correspondences
0.3360000000	maximally stable
0.3360000000	job scheduling
0.3360000000	promising directions
0.3360000000	hdr imaging
0.3360000000	curiosity driven
0.3360000000	dependency distance
0.3360000000	conflicting objectives
0.3360000000	frontal faces
0.3360000000	regularized leader
0.3360000000	the recovery
0.3360000000	sky cameras
0.3360000000	inter frame
0.3360000000	gradients hog
0.3360000000	the meaning
0.3360000000	the predictions
0.3360000000	differ significantly
0.3360000000	the process
0.3360000000	the unlabeled
0.3360000000	news translation
0.3360000000	programming mip
0.3360000000	globally convergent
0.3360000000	human cognition
0.3360000000	semantic role
0.3360000000	human emotions
0.3360000000	skeleton sequence
0.3360000000	autoencoder vae
0.3360000000	slowly changing
0.3360000000	isometry property
0.3360000000	kernelized correlation
0.3360000000	false rejection
0.3360000000	inertial measurement
0.3360000000	compact genetic
0.3360000000	ahead forecasting
0.3360000000	light weight
0.3360000000	dynamic mode
0.3360000000	latest developments
0.3360000000	current situation
0.3360000000	translation tasks
0.3360000000	modified version
0.3360000000	risk minimizers
0.3360000000	healthy subjects
0.3360000000	emergency response
0.3360000000	abstract concepts
0.3360000000	cluster centroids
0.3360000000	previously reported
0.3360000000	attribute transfer
0.3360000000	texture analysis
0.3360000000	partially labeled
0.3360000000	personalized medicine
0.3360000000	interestingness measures
0.3350000000	pre trained convolutional neural network
0.3350000000	short term memory networks lstms
0.3350000000	automatic speech recognition asr systems
0.3350000000	short term memory lstm recurrent
0.3350000000	low level vision tasks
0.3350000000	the ell 1 norm
0.3350000000	proposed method significantly outperforms
0.3350000000	high dimensional feature space
0.3350000000	short term memory networks
0.3350000000	deep learning based methods
0.3350000000	block sparse bayesian learning
0.3350000000	gaussian process gp regression
0.3350000000	large scale image classification
0.3350000000	dirichlet process mixture model
0.3350000000	representation based classification src
0.3350000000	large scale real world
0.3350000000	cross entropy loss function
0.3350000000	convolution neural network cnn
0.3350000000	deep convolution neural network
0.3350000000	the nystr om method
0.3350000000	large scale data sets
0.3350000000	deep belief network dbn
0.3350000000	low bit rate
0.3350000000	low sample size
0.3350000000	slow feature analysis
0.3350000000	ant colony system
0.3350000000	random finite set
0.3350000000	small sample sizes
0.3350000000	markov model hmm
0.3350000000	case based reasoning
0.3350000000	probability density function
0.3350000000	open set recognition
0.3350000000	continuous action spaces
0.3350000000	natural scene images
0.3350000000	high temporal resolution
0.3350000000	safety critical applications
0.3350000000	contextual bandit algorithms
0.3350000000	gradient vanishing problem
0.3350000000	model order selection
0.3350000000	vanishing gradient problem
0.3350000000	local image descriptors
0.3350000000	scale free networks
0.3350000000	deep deterministic policy
0.3350000000	fisher information matrix
0.3350000000	object proposal generation
0.3350000000	deep belief network
0.3350000000	bayesian model averaging
0.3350000000	sum product algorithm
0.3350000000	a theory of
0.3350000000	adversarial network gan
0.3350000000	hand engineered features
0.3350000000	hand designed features
0.3350000000	state action space
0.3350000000	state action spaces
0.3350000000	quadratic assignment problem
0.3350000000	large annotated datasets
0.3350000000	visual relationship detection
0.3350000000	multi relational data
0.3350000000	achieved impressive results
0.3350000000	high energy physics
0.3350000000	stochastic gradient mcmc
0.3350000000	empirical evaluation shows
0.3350000000	vector machine svm
0.3350000000	generative adversarial net
0.3350000000	sparse signal recovery
0.3350000000	gray level images
0.3350000000	dynamic texture recognition
0.3350000000	density ratio estimation
0.3350000000	random field model
0.3350000000	shown great success
0.3350000000	no free lunch
0.3350000000	approach compares favorably
0.3350000000	deep residual network
0.3350000000	user experience
0.3350000000	agent planning
0.3350000000	abductive inference
0.3350000000	game engine
0.3350000000	seq2seq models
0.3350000000	neighbor knn
0.3350000000	accurate saliency
0.3350000000	deep face
0.3350000000	severe occlusions
0.3350000000	factors influencing
0.3350000000	twitter users
0.3350000000	roi pooling
0.3350000000	metaheuristic algorithms
0.3350000000	satisfiability sat
0.3350000000	the location
0.3350000000	inter observer
0.3350000000	complete axiomatization
0.3350000000	the comparison
0.3350000000	the case
0.3350000000	continuous valued
0.3350000000	ball method
0.3350000000	surrogate model
0.3350000000	alignment free
0.3350000000	means fcm
0.3350000000	cardiac function
0.3350000000	shape priors
0.3350000000	perceptual quality
0.3350000000	field tests
0.3350000000	global features
0.3350000000	topic modelling
0.3350000000	human performance
0.3350000000	edge weights
0.3350000000	suffix tree
0.3350000000	systematic comparison
0.3350000000	pose illumination
0.3350000000	latent structure
0.3350000000	parameter sharing
0.3350000000	bf x
0.3350000000	fusion rule
0.3350000000	telephone speech
0.3350000000	tensor based
0.3350000000	filtering cf
0.3350000000	cognitive neuroscience
0.3350000000	fusion rules
0.3350000000	episodic control
0.3350000000	unbounded number
0.3350000000	nuisance factors
0.3350000000	video generation
0.3350000000	absolute percentage
0.3350000000	unlabeled instances
0.3350000000	generalization capability
0.3340000000	long short term memory lstm units
0.3340000000	one class support vector machine
0.3340000000	training deep neural networks with
0.3340000000	directions for future work
0.3340000000	actor critic reinforcement learning
0.3340000000	the dawid skene
0.3340000000	video super resolution
0.3340000000	based data access
0.3340000000	head pose estimation
0.3340000000	gradient descent gd
0.3340000000	communication efficient distributed
0.3340000000	low resolution lr
0.3340000000	self organizing map
0.3340000000	point cloud data
0.3340000000	heuristic search algorithms
0.3340000000	stochastic variance reduction
0.3340000000	the center of
0.3340000000	generalized gaussian distribution
0.3340000000	generalized additive models
0.3340000000	inference and learning
0.3340000000	interior point methods
0.3340000000	the author s
0.3340000000	variance reduction techniques
0.3340000000	compared with existing
0.3340000000	partial least squares
0.3340000000	wavelet transform dwt
0.3340000000	markov decision problems
0.3340000000	eye tracker
0.3340000000	chinese text
0.3340000000	surface reconstruction
0.3340000000	fixed length
0.3340000000	asp solver
0.3340000000	resonance mr
0.3340000000	user simulator
0.3340000000	car dataset
0.3340000000	hazard rate
0.3340000000	language specification
0.3340000000	execution traces
0.3340000000	image generation
0.3340000000	micro f1
0.3340000000	empirical investigation
0.3340000000	broadcast media
0.3340000000	event cameras
0.3340000000	event types
0.3340000000	ancient documents
0.3340000000	underlying subspace
0.3340000000	hashing functions
0.3340000000	asynchronous stochastic
0.3340000000	k modes
0.3340000000	photo collections
0.3340000000	mistake bound
0.3340000000	provably recovers
0.3340000000	smart city
0.3340000000	cyber physical
0.3340000000	foreground object
0.3340000000	univariate marginal
0.3340000000	inductive biases
0.3340000000	architectural choices
0.3340000000	audio recordings
0.3340000000	biological plausibility
0.3340000000	feedback loops
0.3340000000	online boosting
0.3340000000	query suggestion
0.3340000000	supervisory signals
0.3340000000	feature interactions
0.3340000000	linear model
0.3340000000	binary weight
0.3340000000	pca based
0.3340000000	bipartite networks
0.3340000000	ar model
0.3340000000	feret database
0.3340000000	sentiment words
0.3340000000	aerial vehicles
0.3340000000	field cameras
0.3340000000	delayed feedback
0.3340000000	severely limits
0.3340000000	partial deduction
0.3340000000	kernel alignment
0.3340000000	omega left
0.3340000000	amortized inference
0.3340000000	handle missing
0.3340000000	conditional logics
0.3340000000	quantified boolean
0.3340000000	lung ct
0.3340000000	visuo spatial
0.3340000000	based expert
0.3340000000	to distinguish
0.3340000000	value function
0.3340000000	cell phone
0.3340000000	constant factor
0.3340000000	tensor rank
0.3340000000	margin bound
0.3340000000	bengali english
0.3340000000	monolingual data
0.3340000000	computing rc
0.3340000000	switchboard corpus
0.3340000000	symmetry detection
0.3340000000	multiclass problems
0.3340000000	rank tensor
0.3340000000	deterministic policy
0.3340000000	repeated games
0.3340000000	scan images
0.3340000000	flow vectors
0.3340000000	flow fields
0.3340000000	prohibitively large
0.3340000000	deductive databases
0.3330000000	the kullback leibler kl divergence
0.3330000000	neural network language model
0.3330000000	models with latent variables
0.3330000000	neural network cnn models
0.3330000000	neural network cnn architecture
0.3330000000	model achieves state of
0.3330000000	sparse representation based classification
0.3330000000	high level semantic information
0.3330000000	the pre trained model
0.3330000000	the pre trained cnn
0.3330000000	for image super resolution
0.3330000000	for cross modal retrieval
0.3330000000	variational inference algorithm
0.3330000000	high dimensional vector
0.3330000000	object detection performance
0.3330000000	probability density functions
0.3330000000	collective decision making
0.3330000000	alternating direction method
0.3330000000	mixture density network
0.3330000000	based image denoising
0.3330000000	encoder decoder models
0.3330000000	a mobile robot
0.3330000000	experimental result shows
0.3330000000	exploration exploitation dilemma
0.3330000000	ell 1 regularized
0.3330000000	light field imaging
0.3330000000	received significant attention
0.3330000000	visual speech recognition
0.3330000000	step size adaptation
0.3330000000	gray scale images
0.3330000000	domain adaptation method
0.3330000000	stochastic optimization problem
0.3330000000	domain adaptation problem
0.3330000000	extreme multi label
0.3330000000	the observed data
0.3330000000	vector machines svm
0.3330000000	dynamic vision sensor
0.3330000000	acoustic to word
0.3330000000	background and foreground
0.3330000000	arabic sentiment analysis
0.3330000000	armed bandit problems
0.3330000000	provide empirical evidence
0.3330000000	compact genetic algorithm
0.3330000000	multi view feature
0.3330000000	time consuming and
0.3330000000	task learning approach
0.3330000000	random matrix theory
0.3330000000	manually designed features
0.3330000000	latent tree models
0.3330000000	and vice versa
0.3330000000	simplicial complex
0.3330000000	clinical routine
0.3330000000	structured matrices
0.3330000000	upper approximation
0.3330000000	social data
0.3330000000	software engineers
0.3330000000	asp solvers
0.3330000000	individual learning
0.3330000000	word model
0.3330000000	correlation filters
0.3330000000	objective evolutionary
0.3330000000	word clustering
0.3330000000	american english
0.3330000000	sentence matching
0.3330000000	disjunctive normal
0.3330000000	depth features
0.3330000000	artificially intelligent
0.3330000000	dl based
0.3330000000	running times
0.3330000000	om approximation
0.3330000000	frequently occurring
0.3330000000	face databases
0.3330000000	subject predicate
0.3330000000	source data
0.3330000000	supervised methods
0.3330000000	prediction strategy
0.3330000000	face region
0.3330000000	stochastic neurons
0.3330000000	parts model
0.3330000000	dual path
0.3330000000	language resource
0.3330000000	difference td
0.3330000000	youtube faces
0.3330000000	facial features
0.3330000000	wearable sensors
0.3330000000	acoustic models
0.3330000000	health status
0.3330000000	threshold function
0.3330000000	hybrid evolutionary
0.3330000000	machines rbms
0.3330000000	set mathcal
0.3330000000	event type
0.3330000000	view learning
0.3330000000	view object
0.3330000000	minimum description
0.3330000000	possibility distribution
0.3330000000	varying levels
0.3330000000	polynomial kernel
0.3330000000	pareto optimality
0.3330000000	scheduling problems
0.3330000000	service oriented
0.3330000000	gene set
0.3330000000	the end
0.3330000000	online methods
0.3330000000	matrix norm
0.3330000000	the limit
0.3330000000	physics engines
0.3330000000	rate eer
0.3330000000	the center
0.3330000000	the principle
0.3330000000	propositional formulas
0.3330000000	online gradient
0.3330000000	option models
0.3330000000	linear neural
0.3330000000	binary problems
0.3330000000	hidden common
0.3330000000	automated detection
0.3330000000	learning object
0.3330000000	proposed graph
0.3330000000	attention map
0.3330000000	switching costs
0.3330000000	memory unit
0.3330000000	feature acquisition
0.3330000000	historical handwritten
0.3330000000	management practices
0.3330000000	laplacian regularizer
0.3330000000	load forecasting
0.3330000000	human agent
0.3330000000	perceptual grouping
0.3330000000	semantic models
0.3330000000	complex wishart
0.3330000000	low signal
0.3330000000	human head
0.3330000000	dis similarity
0.3330000000	state duration
0.3330000000	stereo camera
0.3330000000	substantial improvement
0.3330000000	kernel machine
0.3330000000	misclassification costs
0.3330000000	based saliency
0.3330000000	alternative strategy
0.3330000000	identity mappings
0.3330000000	based attacks
0.3330000000	based shape
0.3330000000	based descriptor
0.3330000000	compression ratios
0.3330000000	syntactic parameters
0.3330000000	certainty factor
0.3330000000	paramount importance
0.3330000000	key frames
0.3330000000	tensor regression
0.3330000000	attracted significant
0.3330000000	dynamic topic
0.3330000000	likelihood score
0.3330000000	tensor networks
0.3330000000	unit sphere
0.3330000000	translation results
0.3330000000	space reduction
0.3330000000	risk measures
0.3330000000	concept hierarchy
0.3330000000	target type
0.3330000000	graph kernel
0.3330000000	physical space
0.3330000000	computational budget
0.3330000000	gps trajectory
0.3330000000	fingerprint image
0.3330000000	reference model
0.3330000000	finite memory
0.3330000000	o varepsilon
0.3330000000	pepper noise
0.3330000000	gaussian priors
0.3330000000	nn classification
0.3330000000	belief theory
0.3330000000	brain extraction
0.3330000000	label learning
0.3330000000	label embedding
0.3330000000	object bounding
0.3330000000	temporal scales
0.3330000000	temporal coherence
0.3330000000	gender age
0.3330000000	sign detection
0.3330000000	unrealistic assumptions
0.3330000000	rank information
0.3330000000	stacking networks
0.3330000000	flow prediction
0.3330000000	failure modes
0.3330000000	multiple binary
0.3330000000	mathbf y
0.3330000000	a probability
0.3330000000	copy move
0.3330000000	auto associative
0.3330000000	reduced order
0.3330000000	mission critical
0.3330000000	potential games
0.3330000000	timit database
0.3330000000	generalization capabilities
0.3330000000	diagnosis cad
0.3330000000	everyday activities
0.3330000000	overcomplete dictionary
0.3330000000	leaf node
0.3330000000	safe rules
0.3330000000	outcome variable
0.3320000000	np hard combinatorial optimization
0.3320000000	optimal up to logarithmic
0.3320000000	based deep neural network
0.3320000000	the low rank matrix
0.3320000000	neural machine translation model
0.3320000000	distributional semantic models
0.3320000000	word similarity tasks
0.3320000000	based super resolution
0.3320000000	transfer learning based
0.3320000000	vector space models
0.3320000000	super resolution network
0.3320000000	light field camera
0.3320000000	tabu search algorithm
0.3320000000	binary classification task
0.3320000000	the range of
0.3320000000	probability hypothesis density
0.3320000000	statistical language models
0.3320000000	multi class problem
0.3320000000	10 fold cross
0.3320000000	the nodes of
0.3320000000	the weights of
0.3320000000	the limit of
0.3320000000	greedy layer wise
0.3320000000	dynamic neural network
0.3320000000	multi view data
0.3320000000	color image enhancement
0.3320000000	visual turing test
0.3320000000	fixed parameter
0.3320000000	layer features
0.3320000000	software cost
0.3320000000	technical terms
0.3320000000	base learner
0.3320000000	user model
0.3320000000	objective problem
0.3320000000	samples drawn
0.3320000000	vector regression
0.3320000000	critic algorithm
0.3320000000	extrinsic parameters
0.3320000000	readily applied
0.3320000000	illumination conditions
0.3320000000	rdf data
0.3320000000	face features
0.3320000000	unsupervised representation
0.3320000000	single target
0.3320000000	visual relations
0.3320000000	image sampling
0.3320000000	image understanding
0.3320000000	parallel data
0.3320000000	parallel corpus
0.3320000000	processes based
0.3320000000	language semantics
0.3320000000	3d scanning
0.3320000000	intelligent agents
0.3320000000	bayes error
0.3320000000	backward pass
0.3320000000	goes beyond
0.3320000000	gray image
0.3320000000	gradient compression
0.3320000000	mining research
0.3320000000	deep voice
0.3320000000	for visual
0.3320000000	beta process
0.3320000000	domain image
0.3320000000	oriented scene
0.3320000000	event sequence
0.3320000000	domain data
0.3320000000	previous iteration
0.3320000000	autonomous agents
0.3320000000	tracking data
0.3320000000	planning graph
0.3320000000	leverage score
0.3320000000	the paper
0.3320000000	planning tasks
0.3320000000	the dimensionality
0.3320000000	dialog state
0.3320000000	query set
0.3320000000	lambda algorithm
0.3320000000	memory blstm
0.3320000000	small fraction
0.3320000000	learning kernels
0.3320000000	speech quality
0.3320000000	proposed online
0.3320000000	projective simulation
0.3320000000	local binary
0.3320000000	term tracking
0.3320000000	stability selection
0.3320000000	fast fourier
0.3320000000	distorted images
0.3320000000	true label
0.3320000000	frame rates
0.3320000000	batch stochastic
0.3320000000	hopfield neural
0.3320000000	field camera
0.3320000000	search problems
0.3320000000	level saliency
0.3320000000	topic vectors
0.3320000000	kernel logistic
0.3320000000	pac model
0.3320000000	mathcal h
0.3320000000	hypergraph based
0.3320000000	consistency constraint
0.3320000000	conditional belief
0.3320000000	latent subspace
0.3320000000	qualitative probabilistic
0.3320000000	based ctc
0.3320000000	based tagger
0.3320000000	treatment planning
0.3320000000	quantum information
0.3320000000	space area
0.3320000000	dynamic process
0.3320000000	computationally cheaper
0.3320000000	cell level
0.3320000000	target concept
0.3320000000	mass classification
0.3320000000	graph partitioning
0.3320000000	quality index
0.3320000000	graph model
0.3320000000	approximation operator
0.3320000000	soft sets
0.3320000000	topological properties
0.3320000000	topological map
0.3320000000	nmt model
0.3320000000	relative entropy
0.3320000000	critical component
0.3320000000	minimal graph
0.3320000000	visually similar
0.3320000000	attribute values
0.3320000000	video streams
0.3320000000	original graph
0.3320000000	predictive state
0.3320000000	object images
0.3320000000	driving cars
0.3320000000	deterministic variables
0.3320000000	communicating agents
0.3320000000	noisy measurements
0.3320000000	segmentation results
0.3320000000	in deep
0.3320000000	function tagging
0.3320000000	pseudo multi
0.3320000000	ordered weighted
0.3320000000	academic performance
0.3320000000	retinal image
0.3310000000	traveling salesman problem tsp
0.3310000000	short term memory lstm
0.3310000000	short term memory network
0.3310000000	problem in computer vision
0.3310000000	for online convex optimization
0.3310000000	high resolution remote sensing
0.3310000000	detection and pose estimation
0.3310000000	for learning bayesian networks
0.3310000000	rigid structure from motion
0.3310000000	the object of interest
0.3310000000	semantic similarity measure
0.3310000000	model based rl
0.3310000000	variational inference vi
0.3310000000	level sentiment classification
0.3310000000	higher order probabilities
0.3310000000	natural language interface
0.3310000000	rule based decision
0.3310000000	stochastic context free
0.3310000000	based image classification
0.3310000000	world optimization problems
0.3310000000	trained deep convolutional
0.3310000000	statistical shape model
0.3310000000	general video game
0.3310000000	graph convolutional network
0.3310000000	super resolution methods
0.3310000000	source separation bss
0.3310000000	this article presents
0.3310000000	means clustering algorithm
0.3310000000	multi label data
0.3310000000	data stream classification
0.3310000000	quantum reinforcement learning
0.3310000000	probabilistic logic programs
0.3310000000	black box model
0.3310000000	character level language
0.3310000000	based low rank
0.3310000000	spatio temporal information
0.3310000000	quantum machine learning
0.3310000000	set programming asp
0.3310000000	network structure learning
0.3310000000	based classification src
0.3310000000	pose estimation methods
0.3310000000	view representation learning
0.3310000000	machine translation models
0.3310000000	low resolution image
0.3310000000	group feature selection
0.3310000000	low resolution face
0.3310000000	robust subspace clustering
0.3310000000	learning based algorithms
0.3310000000	the computation of
0.3310000000	stochastic optimization problems
0.3310000000	visual face images
0.3310000000	fuzzy answer set
0.3310000000	graph matching problem
0.3310000000	feature subset selection
0.3310000000	ground based sky
0.3310000000	kernel learning mkl
0.3310000000	reference image quality
0.3310000000	cross lingual word
0.3310000000	multi agent planning
0.3310000000	network language models
0.3310000000	low rank component
0.3310000000	p x y
0.3310000000	target domain data
0.3310000000	probability answer set
0.3310000000	metric learning algorithms
0.3310000000	metric learning framework
0.3310000000	multi view video
0.3310000000	color image segmentation
0.3310000000	feature learning approach
0.3310000000	the trained model
0.3310000000	sparse subspace clustering
0.3310000000	based gaze estimation
0.3310000000	based face recognition
0.3310000000	neural network techniques
0.3310000000	word embedding based
0.3310000000	comparison class
0.3310000000	multitask networks
0.3310000000	recognition method
0.3310000000	sparse filtering
0.3310000000	sparse precision
0.3310000000	goal oriented
0.3310000000	style image
0.3310000000	structured support
0.3310000000	layer networks
0.3310000000	sparse noise
0.3310000000	base class
0.3310000000	software quality
0.3310000000	artificially generated
0.3310000000	sparse online
0.3310000000	chinese language
0.3310000000	agent domains
0.3310000000	word word
0.3310000000	agent programming
0.3310000000	baseline classifier
0.3310000000	word sequence
0.3310000000	adaptive evolutionary
0.3310000000	model semantics
0.3310000000	box models
0.3310000000	word translation
0.3310000000	word structure
0.3310000000	knowledge network
0.3310000000	knowledge gradient
0.3310000000	knowledge space
0.3310000000	trained cnns
0.3310000000	improve detection
0.3310000000	behavior policy
0.3310000000	future state
0.3310000000	energy distance
0.3310000000	virtual data
0.3310000000	grained recognition
0.3310000000	prediction strategies
0.3310000000	scale levels
0.3310000000	scale text
0.3310000000	scale selection
0.3310000000	single color
0.3310000000	hardware friendly
0.3310000000	phase selection
0.3310000000	face processing
0.3310000000	regret guarantees
0.3310000000	convex combinations
0.3310000000	distribution examples
0.3310000000	supervised action
0.3310000000	game design
0.3310000000	network topologies
0.3310000000	face models
0.3310000000	supervised manifold
0.3310000000	competitive analysis
0.3310000000	visual localization
0.3310000000	single kernel
0.3310000000	single domain
0.3310000000	traditional stochastic
0.3310000000	image saliency
0.3310000000	image video
0.3310000000	image coding
0.3310000000	supervised detection
0.3310000000	single modal
0.3310000000	manifold optimization
0.3310000000	extended logic
0.3310000000	image question
0.3310000000	convex learning
0.3310000000	image classes
0.3310000000	image embedding
0.3310000000	convex approach
0.3310000000	face reconstruction
0.3310000000	parallel search
0.3310000000	discrete bayesian
0.3310000000	stochastic languages
0.3310000000	image translation
0.3310000000	background image
0.3310000000	resolution data
0.3310000000	frequency representations
0.3310000000	resolution face
0.3310000000	point pattern
0.3310000000	person image
0.3310000000	person search
0.3310000000	stage learning
0.3310000000	order structure
0.3310000000	traffic network
0.3310000000	view video
0.3310000000	domain model
0.3310000000	hand model
0.3310000000	operational costs
0.3310000000	usage data
0.3310000000	order models
0.3310000000	hybrid algorithms
0.3310000000	statistical leverage
0.3310000000	domain generalization
0.3310000000	set recognition
0.3310000000	order probabilities
0.3310000000	deep clustering
0.3310000000	deep speaker
0.3310000000	control method
0.3310000000	policy temporal
0.3310000000	set registration
0.3310000000	hybrid algorithm
0.3310000000	set semantics
0.3310000000	for object
0.3310000000	order tensor
0.3310000000	set functions
0.3310000000	hard attention
0.3310000000	line features
0.3310000000	max information
0.3310000000	super structure
0.3310000000	doubly robust
0.3310000000	stream classification
0.3310000000	stream data
0.3310000000	regularized matrix
0.3310000000	sr based
0.3310000000	the value
0.3310000000	online machine
0.3310000000	the content
0.3310000000	matrix data
0.3310000000	region level
0.3310000000	existing graph
0.3310000000	group selection
0.3310000000	the topology
0.3310000000	existing video
0.3310000000	existing word
0.3310000000	the quality
0.3310000000	dramatically reduce
0.3310000000	precision networks
0.3310000000	presence detection
0.3310000000	online memory
0.3310000000	memory cells
0.3310000000	proposed clustering
0.3310000000	completion algorithms
0.3310000000	hidden weights
0.3310000000	continuous semantic
0.3310000000	active sampling
0.3310000000	linear approximation
0.3310000000	structure model
0.3310000000	bregman iteration
0.3310000000	constrained multi
0.3310000000	standard kernel
0.3310000000	proposed tracking
0.3310000000	extraction model
0.3310000000	causal network
0.3310000000	proposed metric
0.3310000000	writer independent
0.3310000000	simple temporal
0.3310000000	proposed controller
0.3310000000	learning learning
0.3310000000	manual inspection
0.3310000000	simple questions
0.3310000000	small network
0.3310000000	interaction recognition
0.3310000000	context information
0.3310000000	interaction graph
0.3310000000	speech parameters
0.3310000000	local graph
0.3310000000	binary feature
0.3310000000	feature augmentation
0.3310000000	color feature
0.3310000000	kinect sensor
0.3310000000	action class
0.3310000000	global minimizer
0.3310000000	matching process
0.3310000000	matching tasks
0.3310000000	topic words
0.3310000000	semantic flow
0.3310000000	decision set
0.3310000000	matching framework
0.3310000000	complex kernel
0.3310000000	inverse optimal
0.3310000000	action understanding
0.3310000000	low end
0.3310000000	learn spatial
0.3310000000	recently emerged
0.3310000000	sense word
0.3310000000	level problem
0.3310000000	level attention
0.3310000000	human facial
0.3310000000	decision diagrams
0.3310000000	level models
0.3310000000	true online
0.3310000000	global ranking
0.3310000000	search performance
0.3310000000	human ai
0.3310000000	clustering ensemble
0.3310000000	level memory
0.3310000000	means objective
0.3310000000	monotonically increasing
0.3310000000	kernel classifier
0.3310000000	kernel cross
0.3310000000	distortion model
0.3310000000	taking advantage
0.3310000000	latent distribution
0.3310000000	pose face
0.3310000000	evolutionary multi
0.3310000000	evolutionary clustering
0.3310000000	evolutionary design
0.3310000000	robust tensor
0.3310000000	conditional planning
0.3310000000	quantum neural
0.3310000000	quantum state
0.3310000000	contour models
0.3310000000	specific network
0.3310000000	specific sentiment
0.3310000000	evolutionary deep
0.3310000000	based navigation
0.3310000000	conjunctive query
0.3310000000	based opinion
0.3310000000	based sampling
0.3310000000	quantum learning
0.3310000000	based causal
0.3310000000	step temporal
0.3310000000	approaches proposed
0.3310000000	based parser
0.3310000000	based mt
0.3310000000	quantum systems
0.3310000000	based end
0.3310000000	based speaker
0.3310000000	based data
0.3310000000	based document
0.3310000000	pose space
0.3310000000	based label
0.3310000000	input speech
0.3310000000	robust kernel
0.3310000000	quantum algorithms
0.3310000000	quantum algorithm
0.3310000000	quantum models
0.3310000000	lidar based
0.3310000000	features produced
0.3310000000	cell populations
0.3310000000	physical information
0.3310000000	range images
0.3310000000	training object
0.3310000000	dynamic patterns
0.3310000000	density gradient
0.3310000000	translation method
0.3310000000	approach degree
0.3310000000	graph convolutional
0.3310000000	optical images
0.3310000000	task relationships
0.3310000000	graph cnns
0.3310000000	multi person
0.3310000000	target samples
0.3310000000	content image
0.3310000000	margin distribution
0.3310000000	resource language
0.3310000000	rnn architectures
0.3310000000	optimal segmentation
0.3310000000	large search
0.3310000000	choice functions
0.3310000000	scalar valued
0.3310000000	pixel distribution
0.3310000000	narrative texts
0.3310000000	belief set
0.3310000000	brain based
0.3310000000	intelligence systems
0.3310000000	absolute error
0.3310000000	temporal relation
0.3310000000	bayesian bound
0.3310000000	text clustering
0.3310000000	probabilistic language
0.3310000000	neural program
0.3310000000	label data
0.3310000000	end training
0.3310000000	label image
0.3310000000	temporal network
0.3310000000	disparity maps
0.3310000000	error based
0.3310000000	labeled face
0.3310000000	masked conditional
0.3310000000	temporal scale
0.3310000000	end architecture
0.3310000000	object region
0.3310000000	correspondence structure
0.3310000000	logic reasoning
0.3310000000	asymptotic behavior
0.3310000000	driving data
0.3310000000	stopping criteria
0.3310000000	rank matrix
0.3310000000	output image
0.3310000000	saliency model
0.3310000000	flow methods
0.3310000000	flow method
0.3310000000	texture recognition
0.3310000000	ms image
0.3310000000	output sequence
0.3310000000	probability space
0.3310000000	fuzzy data
0.3310000000	lower approximation
0.3310000000	update rule
0.3310000000	saliency information
0.3310000000	a representation
0.3310000000	a user
0.3310000000	potential field
0.3310000000	imaging genetics
0.3310000000	carlo inference
0.3310000000	forecasting model
0.3310000000	texture features
0.3310000000	gaze data
0.3310000000	vehicle classification
0.3310000000	fuzzy systems
0.3300000000	recurrent neural network language model
0.3300000000	pre trained convolutional neural networks
0.3300000000	large scale visual recognition challenge
0.3300000000	gaussian process latent variable model
0.3300000000	multi instance multi label learning
0.3300000000	fully connected conditional random field
0.3300000000	deep convolutional generative adversarial networks
0.3300000000	deep convolutional generative adversarial network
0.3300000000	short term memory lstm network
0.3300000000	partially observable markov decision process
0.3300000000	image classification object detection
0.3300000000	multi layer neural networks
0.3300000000	real world optimization problems
0.3300000000	generative adversarial imitation learning
0.3300000000	large vocabulary speech recognition
0.3300000000	low level visual features
0.3300000000	open domain question answering
0.3300000000	stochastic gradient variational bayes
0.3300000000	encoder decoder neural network
0.3300000000	high dimensional feature spaces
0.3300000000	of human decision making
0.3300000000	real world datasets demonstrate
0.3300000000	probabilistic latent semantic analysis
0.3300000000	fully connected neural network
0.3300000000	large scale image retrieval
0.3300000000	large scale multi label
0.3300000000	large scale machine learning
0.3300000000	a data driven approach
0.3300000000	large scale optimization problems
0.3300000000	dirichlet process mixture models
0.3300000000	method achieves superior performance
0.3300000000	model free reinforcement learning
0.3300000000	multi label image classification
0.3300000000	multi criteria decision making
0.3300000000	attention based encoder decoder
0.3300000000	deep deterministic policy gradient
0.3300000000	deep convolutional encoder decoder
0.3300000000	multi class classification problem
0.3300000000	multi agent reinforcement learning
0.3300000000	information theoretic lower bound
0.3300000000	real life data sets
0.3300000000	information theoretic lower bounds
0.3300000000	automatic face recognition
0.3300000000	input output pairs
0.3300000000	brain computer interface
0.3300000000	k armed bandit
0.3300000000	based online learning
0.3300000000	robust low rank
0.3300000000	model predictive control
0.3300000000	local metric learning
0.3300000000	fuzzy rule based
0.3300000000	optical flow methods
0.3300000000	adversarial machine learning
0.3300000000	extensive experimental evaluations
0.3300000000	deep convolution networks
0.3300000000	active object recognition
0.3300000000	spoken term detection
0.3300000000	matrix completion algorithm
0.3300000000	the dynamics of
0.3300000000	state tracking challenge
0.3300000000	bayesian structure learning
0.3300000000	multiple moving objects
0.3300000000	cnn based approach
0.3300000000	hierarchical temporal memory
0.3300000000	frac 1 n
0.3300000000	average convergence rate
0.3300000000	deep learning models
0.3300000000	the test data
0.3300000000	supervised dictionary learning
0.3300000000	image enhancement techniques
0.3300000000	ct image reconstruction
0.3300000000	subspace clustering algorithms
0.3300000000	kernel based learning
0.3300000000	structural equation model
0.3300000000	gaussian graphical model
0.3300000000	theoretical and practical
0.3300000000	mixed integer linear
0.3300000000	shows significant performance
0.3300000000	dictionary learning method
0.3300000000	adaptive graph
0.3300000000	free image
0.3300000000	integrated information
0.3300000000	combinatorial semi
0.3300000000	software design
0.3300000000	nonlinear dimensionality
0.3300000000	model analysis
0.3300000000	social intelligence
0.3300000000	user models
0.3300000000	entire data
0.3300000000	word models
0.3300000000	prediction network
0.3300000000	registration method
0.3300000000	source words
0.3300000000	relational network
0.3300000000	observed actions
0.3300000000	network lstm
0.3300000000	source domains
0.3300000000	stochastic simulation
0.3300000000	high resource
0.3300000000	prediction rules
0.3300000000	face matching
0.3300000000	semi parametric
0.3300000000	network lasso
0.3300000000	high intensity
0.3300000000	single vector
0.3300000000	answering systems
0.3300000000	image prior
0.3300000000	answering qa
0.3300000000	sequence analysis
0.3300000000	relational features
0.3300000000	wasserstein distances
0.3300000000	relational networks
0.3300000000	mesh based
0.3300000000	resolution network
0.3300000000	dimensional model
0.3300000000	acoustic feature
0.3300000000	polynomial neural
0.3300000000	machines svm
0.3300000000	set optimization
0.3300000000	deep sparse
0.3300000000	control policies
0.3300000000	written digit
0.3300000000	domain representation
0.3300000000	modal data
0.3300000000	domain dataset
0.3300000000	minimum edit
0.3300000000	domain theory
0.3300000000	examples generated
0.3300000000	satisfiability solvers
0.3300000000	map problem
0.3300000000	the liver
0.3300000000	penalty functions
0.3300000000	tracking model
0.3300000000	matrix rank
0.3300000000	the experiments
0.3300000000	the solutions
0.3300000000	the long
0.3300000000	online classification
0.3300000000	the speed
0.3300000000	the growth
0.3300000000	dictionary matrix
0.3300000000	nmf algorithms
0.3300000000	constrained bayesian
0.3300000000	lexical semantic
0.3300000000	uncertainty management
0.3300000000	interaction models
0.3300000000	term motion
0.3300000000	series classification
0.3300000000	context learning
0.3300000000	causal influence
0.3300000000	path model
0.3300000000	channel model
0.3300000000	learning loss
0.3300000000	learning policy
0.3300000000	small corpus
0.3300000000	learning graph
0.3300000000	proposed face
0.3300000000	binary features
0.3300000000	prevent overfitting
0.3300000000	constraint language
0.3300000000	sgd method
0.3300000000	level predictions
0.3300000000	irma dataset
0.3300000000	private learning
0.3300000000	means problem
0.3300000000	sensing images
0.3300000000	shot detection
0.3300000000	semantic memory
0.3300000000	decision analysis
0.3300000000	clustering model
0.3300000000	independence assumption
0.3300000000	clustering framework
0.3300000000	aerial vehicle
0.3300000000	complex questions
0.3300000000	opposite direction
0.3300000000	kernel method
0.3300000000	substantially outperforms
0.3300000000	student network
0.3300000000	calibration methods
0.3300000000	based road
0.3300000000	based vehicle
0.3300000000	lung disease
0.3300000000	data representation
0.3300000000	based energy
0.3300000000	class learning
0.3300000000	data science
0.3300000000	based temporal
0.3300000000	pose parameters
0.3300000000	recent trends
0.3300000000	an agent
0.3300000000	data derived
0.3300000000	based topic
0.3300000000	data privacy
0.3300000000	robust matrix
0.3300000000	sample test
0.3300000000	microarray data
0.3300000000	unit ball
0.3300000000	translation evaluation
0.3300000000	training classes
0.3300000000	cognitive computing
0.3300000000	target appearance
0.3300000000	bootstrap method
0.3300000000	optimal point
0.3300000000	harmony search
0.3300000000	multi speaker
0.3300000000	multi sense
0.3300000000	location problem
0.3300000000	weighted learning
0.3300000000	gan models
0.3300000000	synthetic speech
0.3300000000	classification uncertainty
0.3300000000	gaussian filtering
0.3300000000	video annotation
0.3300000000	brain regions
0.3300000000	label set
0.3300000000	board games
0.3300000000	even if
0.3300000000	intelligence reports
0.3300000000	hierarchical data
0.3300000000	dirichlet model
0.3300000000	inequality constraints
0.3300000000	appearance feature
0.3300000000	seamlessly integrated
0.3300000000	variational em
0.3300000000	loss rank
0.3300000000	multiple learning
0.3300000000	variational parameters
0.3300000000	medical text
0.3300000000	function results
0.3300000000	convolution layer
0.3300000000	variance tradeoff
0.3300000000	segmentation maps
0.3300000000	maximum accuracy
0.3300000000	detection module
0.3290000000	continuous state and action
0.3290000000	convolutional neural network for
0.3290000000	training deep neural networks
0.3290000000	many real world applications
0.3290000000	semantic similarity measures
0.3290000000	dimensional linear subspaces
0.3290000000	language processing task
0.3290000000	human visual attention
0.3290000000	bayesian nonparametric models
0.3290000000	video surveillance systems
0.3290000000	approximate posterior inference
0.3290000000	fully connected layer
0.3290000000	membership stochastic blockmodel
0.3290000000	rank matrix completion
0.3290000000	based subspace clustering
0.3290000000	graph signal processing
0.3290000000	the result of
0.3290000000	multi class boosting
0.3290000000	the clustering process
0.3290000000	hierarchical clustering methods
0.3290000000	the precision of
0.3290000000	metric learning method
0.3290000000	achieves competitive performance
0.3290000000	word error rates
0.3290000000	tree augmented
0.3290000000	fixed budget
0.3290000000	unbiased estimates
0.3290000000	social choice
0.3290000000	significantly outperformed
0.3290000000	relational database
0.3290000000	language questions
0.3290000000	significantly outperforming
0.3290000000	empirical evaluations
0.3290000000	image data
0.3290000000	negative log
0.3290000000	visual features
0.3290000000	argumentation systems
0.3290000000	single stage
0.3290000000	convex functions
0.3290000000	image features
0.3290000000	policy training
0.3290000000	too much
0.3290000000	order method
0.3290000000	policy parameters
0.3290000000	svm algorithm
0.3290000000	uci datasets
0.3290000000	the stability
0.3290000000	inference algorithms
0.3290000000	the neighborhood
0.3290000000	the context
0.3290000000	the graphical
0.3290000000	the work
0.3290000000	theory guided
0.3290000000	discriminative dictionary
0.3290000000	open questions
0.3290000000	query terms
0.3290000000	continuous attributes
0.3290000000	linear filters
0.3290000000	linear models
0.3290000000	binary data
0.3290000000	of machine
0.3290000000	motion representation
0.3290000000	motion parameters
0.3290000000	recently gained
0.3290000000	almost sure
0.3290000000	vqa model
0.3290000000	independence testing
0.3290000000	kernel functions
0.3290000000	kernel parameters
0.3290000000	edge devices
0.3290000000	astronomical images
0.3290000000	blurred image
0.3290000000	based hand
0.3290000000	based game
0.3290000000	manipulation tasks
0.3290000000	dynamic sampling
0.3290000000	making decisions
0.3290000000	ranked list
0.3290000000	cluster size
0.3290000000	random initialization
0.3290000000	object mask
0.3290000000	convolutional attention
0.3290000000	slow convergence
0.3290000000	metric spaces
0.3290000000	learns word
0.3280000000	mnist cifar 10 cifar 100
0.3280000000	statistics and machine learning
0.3280000000	the penn treebank
0.3280000000	bayesian information criterion
0.3280000000	the location of
0.3280000000	langevin monte carlo
0.3280000000	monte carlo mc
0.3280000000	hybrid knowledge bases
0.3280000000	text to image
0.3280000000	newton s method
0.3280000000	number of samples
0.3280000000	network cnn model
0.3280000000	future research directions
0.3280000000	the minimization of
0.3280000000	on simulated data
0.3280000000	depth cameras
0.3280000000	every day
0.3280000000	stanford sentiment
0.3280000000	word forms
0.3280000000	social science
0.3280000000	shared memory
0.3280000000	nonparametric regression
0.3280000000	indirect supervision
0.3280000000	locality constrained
0.3280000000	trajectory clustering
0.3280000000	industrial applications
0.3280000000	multiobjective evolutionary
0.3280000000	significantly fewer
0.3280000000	hardware implementation
0.3280000000	regularity conditions
0.3280000000	dependency path
0.3280000000	policy optimization
0.3280000000	exponential loss
0.3280000000	bandwidth selection
0.3280000000	statistical estimation
0.3280000000	product distribution
0.3280000000	l1 penalty
0.3280000000	net regularization
0.3280000000	the outputs
0.3280000000	stream convnets
0.3280000000	the influence
0.3280000000	the collection
0.3280000000	inference engine
0.3280000000	binary classifiers
0.3280000000	hebbian learning
0.3280000000	action units
0.3280000000	action spaces
0.3280000000	motion cues
0.3280000000	decision boundary
0.3280000000	human connectome
0.3280000000	search techniques
0.3280000000	lesion detection
0.3280000000	strategic games
0.3280000000	based classification
0.3280000000	inducing penalty
0.3280000000	branching factor
0.3280000000	response generation
0.3280000000	unified framework
0.3280000000	application scenarios
0.3280000000	pairwise constraints
0.3280000000	business processes
0.3280000000	possible worlds
0.3280000000	briefly review
0.3280000000	multi criteria
0.3280000000	dynamic systems
0.3280000000	log rank
0.3280000000	approximation operators
0.3280000000	graph learning
0.3280000000	cad systems
0.3280000000	skin images
0.3280000000	synthetic faces
0.3280000000	label ranking
0.3280000000	interactive segmentation
0.3280000000	error mmse
0.3280000000	video stream
0.3280000000	normal form
0.3280000000	error mae
0.3280000000	times smaller
0.3280000000	a neural
0.3280000000	detection results
0.3280000000	movie recommendation
0.3280000000	proposal generation
0.3270000000	the art speech recognition
0.3270000000	to generate adversarial examples
0.3270000000	3d hand pose estimation
0.3270000000	the inverse covariance matrix
0.3270000000	convolutional neural networks for
0.3270000000	model based methods
0.3270000000	spike timing dependent
0.3270000000	controlled natural language
0.3270000000	categorical compositional distributional
0.3270000000	advantage actor critic
0.3270000000	genetic algorithm ii
0.3270000000	gene expression profiles
0.3270000000	the objective function
0.3270000000	boltzmann machines rbm
0.3270000000	shot learning zsl
0.3270000000	fractal image compression
0.3270000000	the process of
0.3270000000	machine learning approaches
0.3270000000	auto encoder vae
0.3270000000	oriented scene text
0.3270000000	high resolution image
0.3270000000	machine learning tasks
0.3270000000	lower bounds for
0.3270000000	a union of
0.3270000000	frame to frame
0.3270000000	character n grams
0.3270000000	benchmark data sets
0.3270000000	nearest neighbor knn
0.3270000000	ordinary differential equation
0.3270000000	based machine translation
0.3270000000	functional data analysis
0.3270000000	free energies
0.3270000000	free form
0.3270000000	highly effective
0.3270000000	highly successful
0.3270000000	spaces rkhs
0.3270000000	unseen data
0.3270000000	word frequency
0.3270000000	fixed confidence
0.3270000000	box model
0.3270000000	sampling scheme
0.3270000000	jointly learn
0.3270000000	software developers
0.3270000000	mobile robotics
0.3270000000	sparse approximation
0.3270000000	recognition atr
0.3270000000	accuracy performance
0.3270000000	english russian
0.3270000000	challenging face
0.3270000000	free text
0.3270000000	media sites
0.3270000000	domains including
0.3270000000	processing steps
0.3270000000	technical challenges
0.3270000000	trained models
0.3270000000	challenging datasets
0.3270000000	energy saving
0.3270000000	energy model
0.3270000000	functional networks
0.3270000000	tree structure
0.3270000000	speckle reduction
0.3270000000	significantly higher
0.3270000000	registration algorithms
0.3270000000	island model
0.3270000000	semi random
0.3270000000	orientation field
0.3270000000	face model
0.3270000000	semi structured
0.3270000000	invariant features
0.3270000000	prior distribution
0.3270000000	cs recovery
0.3270000000	raw sensory
0.3270000000	language pair
0.3270000000	scale invariance
0.3270000000	image acquisition
0.3270000000	visual attributes
0.3270000000	theoretical justifications
0.3270000000	sequence modeling
0.3270000000	language change
0.3270000000	node classification
0.3270000000	tumour segmentation
0.3270000000	algorithms including
0.3270000000	factor graphs
0.3270000000	p norm
0.3270000000	japanese sentences
0.3270000000	embodied agents
0.3270000000	cancer screening
0.3270000000	physiological signals
0.3270000000	wavelet transforms
0.3270000000	research field
0.3270000000	unknown classes
0.3270000000	statistical modeling
0.3270000000	gradient decent
0.3270000000	photo streams
0.3270000000	adjacency matrices
0.3270000000	gradient estimate
0.3270000000	deep video
0.3270000000	results reveal
0.3270000000	number of
0.3270000000	oriented text
0.3270000000	deep recurrent
0.3270000000	artificial agents
0.3270000000	efficient learning
0.3270000000	twitter data
0.3270000000	each data
0.3270000000	heat map
0.3270000000	dc programming
0.3270000000	perturbed inputs
0.3270000000	normalized laplacian
0.3270000000	robotics applications
0.3270000000	mounted camera
0.3270000000	lp norm
0.3270000000	equality constraints
0.3270000000	multidimensional data
0.3270000000	iteratively refine
0.3270000000	regularized kernel
0.3270000000	theory rst
0.3270000000	sparsely connected
0.3270000000	heuristic algorithms
0.3270000000	relevance determination
0.3270000000	matrix approach
0.3270000000	damage detection
0.3270000000	fine scale
0.3270000000	dictionary based
0.3270000000	the distances
0.3270000000	the evolution
0.3270000000	main results
0.3270000000	iterative algorithm
0.3270000000	jacobian matrix
0.3270000000	inference procedures
0.3270000000	discriminative localization
0.3270000000	outstanding performance
0.3270000000	overwhelming probability
0.3270000000	channel wise
0.3270000000	avoiding overfitting
0.3270000000	regular intervals
0.3270000000	score matching
0.3270000000	manual intervention
0.3270000000	memory efficient
0.3270000000	small objects
0.3270000000	programming dp
0.3270000000	programming sdp
0.3270000000	context specific
0.3270000000	cultural evolution
0.3270000000	embedding vectors
0.3270000000	learning data
0.3270000000	long sequences
0.3270000000	learning technique
0.3270000000	learning deep
0.3270000000	learning machine
0.3270000000	open world
0.3270000000	speech signal
0.3270000000	retrieval performance
0.3270000000	pattern matching
0.3270000000	linear feature
0.3270000000	local information
0.3270000000	attention recently
0.3270000000	deconvolutional layers
0.3270000000	environmental sound
0.3270000000	analytically tractable
0.3270000000	kalman filters
0.3270000000	reversible markov
0.3270000000	notoriously hard
0.3270000000	action models
0.3270000000	sentiment treebank
0.3270000000	result shows
0.3270000000	google cloud
0.3270000000	inverse problem
0.3270000000	semantic labels
0.3270000000	auxiliary information
0.3270000000	complementary strengths
0.3270000000	level embeddings
0.3270000000	field programmable
0.3270000000	semantic mapping
0.3270000000	semantic parts
0.3270000000	decision process
0.3270000000	complex tasks
0.3270000000	operating characteristic
0.3270000000	motion data
0.3270000000	global minimizers
0.3270000000	siamese network
0.3270000000	study shows
0.3270000000	bethe free
0.3270000000	human supervision
0.3270000000	architecture called
0.3270000000	level model
0.3270000000	frame prediction
0.3270000000	low contrast
0.3270000000	complex data
0.3270000000	automatic object
0.3270000000	pyramid pooling
0.3270000000	clustering techniques
0.3270000000	clustering result
0.3270000000	reconstruction quality
0.3270000000	method produces
0.3270000000	sensing cs
0.3270000000	google news
0.3270000000	compactly represent
0.3270000000	edge features
0.3270000000	early days
0.3270000000	connection weights
0.3270000000	reconstruction methods
0.3270000000	pedestrian detectors
0.3270000000	based matrix
0.3270000000	camera networks
0.3270000000	tomography ct
0.3270000000	generally speaking
0.3270000000	comparable accuracy
0.3270000000	pose hypotheses
0.3270000000	specific features
0.3270000000	data acquisition
0.3270000000	latent class
0.3270000000	based argumentation
0.3270000000	data domain
0.3270000000	regularization methods
0.3270000000	instance aware
0.3270000000	parameter learning
0.3270000000	swarm optimisation
0.3270000000	sample efficient
0.3270000000	universal induction
0.3270000000	regularization techniques
0.3270000000	solar energy
0.3270000000	input space
0.3270000000	syntactic information
0.3270000000	transient dynamics
0.3270000000	digital libraries
0.3270000000	camera mounted
0.3270000000	adverse effects
0.3270000000	optimal policies
0.3270000000	selection strategy
0.3270000000	labelled data
0.3270000000	rnn model
0.3270000000	optimal classifier
0.3270000000	mathematical programming
0.3270000000	density function
0.3270000000	multi modality
0.3270000000	training dataset
0.3270000000	optical flows
0.3270000000	adversarial loss
0.3270000000	provide theoretical
0.3270000000	key idea
0.3270000000	computational effort
0.3270000000	related methods
0.3270000000	related problems
0.3270000000	graph theoretic
0.3270000000	patient care
0.3270000000	external knowledge
0.3270000000	massive data
0.3270000000	multi spectral
0.3270000000	dataset demonstrate
0.3270000000	uniformly sampled
0.3270000000	pixel intensities
0.3270000000	demonstrate empirically
0.3270000000	quality functions
0.3270000000	similarity prediction
0.3270000000	likelihood function
0.3270000000	meta data
0.3270000000	similarity detection
0.3270000000	experiments confirm
0.3270000000	confusion matrices
0.3270000000	quality control
0.3270000000	optimal power
0.3270000000	extremely high
0.3270000000	boolean formula
0.3270000000	voxel wise
0.3270000000	brain images
0.3270000000	outperform existing
0.3270000000	random guessing
0.3270000000	convolutional kernel
0.3270000000	relation detection
0.3270000000	unlike traditional
0.3270000000	impressive results
0.3270000000	random walker
0.3270000000	temporal reasoning
0.3270000000	text processing
0.3270000000	neuronal activity
0.3270000000	allocation lda
0.3270000000	video representation
0.3270000000	multiplicative updates
0.3270000000	predictive model
0.3270000000	additive white
0.3270000000	text embedding
0.3270000000	nuisance variables
0.3270000000	visually plausible
0.3270000000	label information
0.3270000000	stacked autoencoders
0.3270000000	temporal domain
0.3270000000	scene graph
0.3270000000	excellent results
0.3270000000	tag completion
0.3270000000	driving force
0.3270000000	driving car
0.3270000000	noisy observations
0.3270000000	variational approximation
0.3270000000	weight vector
0.3270000000	linked data
0.3270000000	1 delta
0.3270000000	detection algorithm
0.3270000000	crafting adversarial
0.3270000000	cross correlation
0.3270000000	analysis reveals
0.3270000000	imaging data
0.3270000000	detection method
0.3270000000	segmentation accuracy
0.3270000000	detection proposals
0.3270000000	multiagent planning
0.3270000000	primate visual
0.3270000000	tedious manual
0.3260000000	cifar 10 and cifar 100 datasets
0.3260000000	fully convolutional neural networks
0.3260000000	a closed form solution
0.3260000000	the proposed neural network
0.3260000000	magnetic resonance imaging fmri
0.3260000000	pascal voc 2012 dataset
0.3260000000	matrix variate gaussian
0.3260000000	the generation of
0.3260000000	manifold learning methods
0.3260000000	root mean squared
0.3260000000	nash equilibrium in
0.3260000000	the mixture components
0.3260000000	regret bounds for
0.3260000000	spatial and spectral
0.3260000000	sampling strategy
0.3260000000	experimental studies
0.3260000000	highly nonlinear
0.3260000000	sparse solution
0.3260000000	sparse data
0.3260000000	structured deep
0.3260000000	regression methods
0.3260000000	computed efficiently
0.3260000000	learned features
0.3260000000	learned representations
0.3260000000	tree structures
0.3260000000	combinatorial problems
0.3260000000	structured sparse
0.3260000000	adaptive filtering
0.3260000000	user interactions
0.3260000000	bandit algorithms
0.3260000000	observed variables
0.3260000000	invariant representations
0.3260000000	localization accuracy
0.3260000000	single layer
0.3260000000	unsupervised classification
0.3260000000	language modelling
0.3260000000	high capacity
0.3260000000	supervised training
0.3260000000	high variance
0.3260000000	high density
0.3260000000	background noise
0.3260000000	accelerated stochastic
0.3260000000	dimensional image
0.3260000000	dimensional data
0.3260000000	negative sampling
0.3260000000	bayes optimal
0.3260000000	acoustic features
0.3260000000	greatly improves
0.3260000000	spatial relationships
0.3260000000	gradient penalty
0.3260000000	line search
0.3260000000	accurate results
0.3260000000	results confirm
0.3260000000	results showed
0.3260000000	equally important
0.3260000000	nlp systems
0.3260000000	test problems
0.3260000000	map information
0.3260000000	annotated corpus
0.3260000000	discriminative power
0.3260000000	tuning parameters
0.3260000000	the likelihood
0.3260000000	existing datasets
0.3260000000	inference tasks
0.3260000000	the proof
0.3260000000	learning procedure
0.3260000000	typically requires
0.3260000000	linear classifier
0.3260000000	stationary points
0.3260000000	achieve high
0.3260000000	optimization procedure
0.3260000000	small world
0.3260000000	retrieval task
0.3260000000	learning machines
0.3260000000	open problem
0.3260000000	generated samples
0.3260000000	human annotated
0.3260000000	motion patterns
0.3260000000	state transitions
0.3260000000	evaluation measures
0.3260000000	sift features
0.3260000000	structural constraints
0.3260000000	private information
0.3260000000	human evaluation
0.3260000000	human poses
0.3260000000	method yields
0.3260000000	search heuristics
0.3260000000	partial information
0.3260000000	estimation problems
0.3260000000	shape space
0.3260000000	shape correspondence
0.3260000000	reconstruction approach
0.3260000000	pose variations
0.3260000000	based classifier
0.3260000000	application specific
0.3260000000	easily implemented
0.3260000000	data point
0.3260000000	world problems
0.3260000000	projection matrix
0.3260000000	noise variance
0.3260000000	automatically detect
0.3260000000	camera tracking
0.3260000000	uncertain information
0.3260000000	valuation based
0.3260000000	epistemic state
0.3260000000	vocabulary size
0.3260000000	transmission map
0.3260000000	approach improves
0.3260000000	computational intelligence
0.3260000000	selection method
0.3260000000	training deep
0.3260000000	target detection
0.3260000000	graph filters
0.3260000000	numerical optimization
0.3260000000	approach yields
0.3260000000	experiments suggest
0.3260000000	graph spectral
0.3260000000	similarity based
0.3260000000	physical systems
0.3260000000	missing information
0.3260000000	asr systems
0.3260000000	valuable information
0.3260000000	computing power
0.3260000000	random fourier
0.3260000000	fused image
0.3260000000	predictive modeling
0.3260000000	text analysis
0.3260000000	classification src
0.3260000000	ai research
0.3260000000	error propagation
0.3260000000	object parts
0.3260000000	video game
0.3260000000	candidate solutions
0.3260000000	mri data
0.3260000000	output layer
0.3260000000	distributed optimization
0.3260000000	rank function
0.3260000000	loss minimization
0.3260000000	analysis network
0.3260000000	detection systems
0.3260000000	detection performance
0.3250000000	method achieves state of
0.3250000000	the bethe free energy
0.3250000000	a deep learning based
0.3250000000	approach achieves state of
0.3250000000	both linear and non
0.3250000000	the least squares
0.3250000000	natural language generation
0.3250000000	the output of
0.3250000000	hierarchical reinforcement learning
0.3250000000	a proof of
0.3250000000	the digital ecosystem
0.3250000000	the minority class
0.3250000000	high resolution hr
0.3250000000	special cases of
0.3250000000	prone to overfitting
0.3250000000	training of deep
0.3250000000	last few decades
0.3250000000	detection and tracking
0.3250000000	user experience and
0.3250000000	graph laplacian matrix
0.3250000000	states and actions
0.3250000000	corpus based
0.3250000000	sparse models
0.3250000000	sparse additive
0.3250000000	model compression
0.3250000000	sampling algorithms
0.3250000000	improves performance
0.3250000000	sentence pairs
0.3250000000	challenging tasks
0.3250000000	public opinion
0.3250000000	network learns
0.3250000000	game tree
0.3250000000	theoretical result
0.3250000000	discrete event
0.3250000000	negative examples
0.3250000000	single agent
0.3250000000	performance gain
0.3250000000	distribution free
0.3250000000	point based
0.3250000000	head orientation
0.3250000000	spatial context
0.3250000000	expected regret
0.3250000000	expected reward
0.3250000000	test functions
0.3250000000	for neural
0.3250000000	exemplar based
0.3250000000	process mining
0.3250000000	posterior distribution
0.3250000000	tracking algorithm
0.3250000000	the annotation
0.3250000000	hidden neurons
0.3250000000	uncertainty estimates
0.3250000000	aspect extraction
0.3250000000	achieve comparable
0.3250000000	hidden nodes
0.3250000000	retrieval tasks
0.3250000000	feature points
0.3250000000	spectral analysis
0.3250000000	global context
0.3250000000	complex models
0.3250000000	estimation procedure
0.3250000000	action unit
0.3250000000	estimation method
0.3250000000	kernel selection
0.3250000000	structural similarity
0.3250000000	cortical areas
0.3250000000	self interested
0.3250000000	quantum theoretic
0.3250000000	reference database
0.3250000000	multi turn
0.3250000000	computational methods
0.3250000000	quality based
0.3250000000	key insight
0.3250000000	large corpora
0.3250000000	grid search
0.3250000000	brain inspired
0.3250000000	previously developed
0.3250000000	stacked autoencoder
0.3250000000	labeled images
0.3250000000	recurrent unit
0.3250000000	classification model
0.3250000000	and color
0.3250000000	object image
0.3250000000	temporal patterns
0.3250000000	object discovery
0.3250000000	video dataset
0.3250000000	probabilistic modeling
0.3250000000	gamma process
0.3250000000	rank model
0.3250000000	accurately estimate
0.3250000000	multiple datasets
0.3250000000	problem specific
0.3250000000	multiple scales
0.3240000000	based on convolutional neural network
0.3240000000	long short term memory network
0.3240000000	the world wide web
0.3240000000	markov random fields mrf
0.3240000000	deep learning based models
0.3240000000	the sample complexity of
0.3240000000	hidden markov random field
0.3240000000	to sequence models
0.3240000000	to sequence learning
0.3240000000	input output examples
0.3240000000	random graph model
0.3240000000	a belief function
0.3240000000	superior performance over
0.3240000000	achieves superior performance
0.3240000000	process gp models
0.3240000000	the group lasso
0.3240000000	reasoning under uncertainty
0.3240000000	the prototype model
0.3240000000	real world scenarios
0.3240000000	unsupervised learning of
0.3240000000	extended yale b
0.3240000000	large scale data
0.3240000000	the game of
0.3240000000	feed forward networks
0.3240000000	log linear model
0.3240000000	planning under uncertainty
0.3240000000	upper bound on
0.3240000000	algorithm named
0.3240000000	direct policy
0.3240000000	fixed size
0.3240000000	naturally leads
0.3240000000	user contributed
0.3240000000	model averaging
0.3240000000	word recognition
0.3240000000	sampling algorithm
0.3240000000	convex programming
0.3240000000	image databases
0.3240000000	hardware acceleration
0.3240000000	prediction problems
0.3240000000	significantly reduced
0.3240000000	extensive numerical
0.3240000000	factor graph
0.3240000000	statistical tests
0.3240000000	control problems
0.3240000000	promising performance
0.3240000000	spatial arrangement
0.3240000000	previous attempts
0.3240000000	test error
0.3240000000	map som
0.3240000000	encouraging experimental
0.3240000000	tracking methods
0.3240000000	inference rules
0.3240000000	regularized maximum
0.3240000000	regularized nmf
0.3240000000	typically require
0.3240000000	feature encoding
0.3240000000	long distance
0.3240000000	optimization scheme
0.3240000000	characteristic curve
0.3240000000	information fusion
0.3240000000	learning theory
0.3240000000	subtle differences
0.3240000000	complementary information
0.3240000000	sentiment lexicon
0.3240000000	decision boundaries
0.3240000000	particularly suited
0.3240000000	semidefinite programs
0.3240000000	lstm based
0.3240000000	edge preservation
0.3240000000	substantially improve
0.3240000000	semidefinite program
0.3240000000	transition operator
0.3240000000	valued features
0.3240000000	pose invariant
0.3240000000	input perturbation
0.3240000000	morphological tagging
0.3240000000	latent topics
0.3240000000	based optimization
0.3240000000	treatment regime
0.3240000000	based reasoning
0.3240000000	mab algorithms
0.3240000000	training strategy
0.3240000000	selection algorithm
0.3240000000	dynamic scenes
0.3240000000	images belonging
0.3240000000	provide evidence
0.3240000000	equal error
0.3240000000	european languages
0.3240000000	current research
0.3240000000	weighted images
0.3240000000	approach called
0.3240000000	soft tissue
0.3240000000	divergence minimization
0.3240000000	miss rate
0.3240000000	normal logic
0.3240000000	relative error
0.3240000000	ambient dimension
0.3240000000	factorization nmf
0.3240000000	classification method
0.3240000000	non invasive
0.3240000000	video understanding
0.3240000000	rank approximation
0.3240000000	flow field
0.3240000000	deterministic annealing
0.3240000000	multiple labels
0.3240000000	maximum suppression
0.3240000000	mathbf c
0.3240000000	clinically relevant
0.3240000000	multiple objects
0.3240000000	variance trade
0.3240000000	extensively evaluate
0.3240000000	gp model
0.3240000000	mixing coefficients
0.3230000000	machine learning and computer vision
0.3230000000	for sequence to sequence learning
0.3230000000	significant improvements in
0.3230000000	in digital ecosystems
0.3230000000	the convolution layer
0.3230000000	attentional encoder decoder
0.3230000000	the beta process
0.3230000000	over complete dictionary
0.3230000000	the trace norm
0.3230000000	a scale invariant
0.3230000000	the fixed point
0.3230000000	the cross domain
0.3230000000	the sparsity of
0.3230000000	closed form expression
0.3230000000	a face image
0.3230000000	rgb d images
0.3230000000	the batch size
0.3230000000	logic programming and
0.3230000000	deep learning dl
0.3230000000	estimation of distribution
0.3230000000	large scale dataset
0.3230000000	large scale analysis
0.3230000000	one class classification
0.3230000000	at most k
0.3230000000	the utility function
0.3230000000	t distributed stochastic
0.3230000000	large data sets
0.3230000000	quantitative results
0.3230000000	algorithm designed
0.3230000000	web scale
0.3230000000	powerful tool
0.3230000000	structured variational
0.3230000000	fixed number
0.3230000000	model size
0.3230000000	models capable
0.3230000000	norm regularization
0.3230000000	models tend
0.3230000000	unbiased estimator
0.3230000000	measurement errors
0.3230000000	regression approach
0.3230000000	knowledge extracted
0.3230000000	processing based
0.3230000000	sampling distribution
0.3230000000	robotic platforms
0.3230000000	bias variance
0.3230000000	formal representation
0.3230000000	route planning
0.3230000000	formal concept
0.3230000000	media users
0.3230000000	bounded rational
0.3230000000	source toolkit
0.3230000000	dependent speaker
0.3230000000	practical algorithms
0.3230000000	practical algorithm
0.3230000000	convex objective
0.3230000000	supervised setting
0.3230000000	unsupervised clustering
0.3230000000	convex cone
0.3230000000	cnns trained
0.3230000000	high dimension
0.3230000000	visual appearance
0.3230000000	visual slam
0.3230000000	image resolution
0.3230000000	network intrusion
0.3230000000	textual content
0.3230000000	performance measure
0.3230000000	performance degradation
0.3230000000	significantly lower
0.3230000000	language acquisition
0.3230000000	speed measurement
0.3230000000	parallel texts
0.3230000000	language nl
0.3230000000	geometric model
0.3230000000	newly emerging
0.3230000000	wavelet based
0.3230000000	acoustic modeling
0.3230000000	traffic scene
0.3230000000	set theory
0.3230000000	linguistic knowledge
0.3230000000	statistical parametric
0.3230000000	aware semantic
0.3230000000	deep multi
0.3230000000	results hold
0.3230000000	artificial systems
0.3230000000	engineered features
0.3230000000	efficient training
0.3230000000	max cut
0.3230000000	backward greedy
0.3230000000	expression profiles
0.3230000000	propagation algorithm
0.3230000000	international relations
0.3230000000	the hyperparameters
0.3230000000	heuristic based
0.3230000000	important tasks
0.3230000000	the property
0.3230000000	the description
0.3230000000	inference methods
0.3230000000	heuristic algorithm
0.3230000000	discriminative models
0.3230000000	online courses
0.3230000000	manhattan world
0.3230000000	learning architectures
0.3230000000	programming paradigm
0.3230000000	proposed recently
0.3230000000	optimisation problem
0.3230000000	memory requirement
0.3230000000	pattern classification
0.3230000000	small sets
0.3230000000	small footprint
0.3230000000	principle component
0.3230000000	environmental monitoring
0.3230000000	dense reconstructions
0.3230000000	artifact free
0.3230000000	originally proposed
0.3230000000	globally normalized
0.3230000000	human judgment
0.3230000000	semantic properties
0.3230000000	computer scientists
0.3230000000	sensor networks
0.3230000000	low variance
0.3230000000	level language
0.3230000000	grammar formalism
0.3230000000	complex nature
0.3230000000	achieves significantly
0.3230000000	complex problems
0.3230000000	human visual
0.3230000000	embedded systems
0.3230000000	human judgements
0.3230000000	general algorithm
0.3230000000	low frequency
0.3230000000	coding scheme
0.3230000000	method named
0.3230000000	search procedure
0.3230000000	spectral decomposition
0.3230000000	algebraic structure
0.3230000000	compact binary
0.3230000000	population based
0.3230000000	robust low
0.3230000000	alternative methods
0.3230000000	generation models
0.3230000000	approaches tend
0.3230000000	input variables
0.3230000000	approaches focus
0.3230000000	world images
0.3230000000	speedup compared
0.3230000000	eigenvalue decomposition
0.3230000000	trap images
0.3230000000	dice scores
0.3230000000	patient records
0.3230000000	extremely challenging
0.3230000000	training scheme
0.3230000000	space complexity
0.3230000000	graph classification
0.3230000000	computational experiments
0.3230000000	large deformation
0.3230000000	cell tracking
0.3230000000	training stability
0.3230000000	related source
0.3230000000	mathematical models
0.3230000000	computational framework
0.3230000000	log density
0.3230000000	appealing properties
0.3230000000	large sample
0.3230000000	selection process
0.3230000000	optimal algorithm
0.3230000000	large pool
0.3230000000	theoretic analysis
0.3230000000	finite mixture
0.3230000000	bilingual dictionary
0.3230000000	boolean functions
0.3230000000	internal representation
0.3230000000	initial conditions
0.3230000000	random graphs
0.3230000000	labeled datasets
0.3230000000	extracting features
0.3230000000	text corpus
0.3230000000	classification clustering
0.3230000000	gender recognition
0.3230000000	million tweets
0.3230000000	bayesian approach
0.3230000000	fitted q
0.3230000000	probabilistic causal
0.3230000000	translated texts
0.3230000000	fundamental problems
0.3230000000	meaningful information
0.3230000000	probability estimates
0.3230000000	design choices
0.3230000000	multiple times
0.3230000000	gaze direction
0.3220000000	for end to end speech
0.3220000000	a multi armed bandit
0.3220000000	the support vector machine
0.3220000000	the generalization error of
0.3220000000	a long short term
0.3220000000	to sequence model
0.3220000000	the fisher vector
0.3220000000	the mobile device
0.3220000000	the convex hull
0.3220000000	don t know
0.3220000000	convolution neural networks
0.3220000000	ell 2 norm
0.3220000000	the leaf nodes
0.3220000000	the sp machine
0.3220000000	the reconstructed images
0.3220000000	linked open data
0.3220000000	the properties of
0.3220000000	the supply chain
0.3220000000	the nmt model
0.3220000000	brain mri segmentation
0.3220000000	the model to
0.3220000000	spoken dialogue system
0.3220000000	to end learning
0.3220000000	shows promise
0.3220000000	direct application
0.3220000000	quantitative measure
0.3220000000	model capable
0.3220000000	jointly optimized
0.3220000000	gram language
0.3220000000	agent chooses
0.3220000000	processing pipeline
0.3220000000	social interactions
0.3220000000	geometrical interpretation
0.3220000000	unsupervised training
0.3220000000	network size
0.3220000000	network convnet
0.3220000000	single cell
0.3220000000	strong correlation
0.3220000000	processes pomdps
0.3220000000	distributional semantic
0.3220000000	synthesize realistic
0.3220000000	health records
0.3220000000	accurate reconstruction
0.3220000000	spatial distribution
0.3220000000	order tensors
0.3220000000	accurate segmentation
0.3220000000	greatly improved
0.3220000000	statistical relational
0.3220000000	statistical significance
0.3220000000	demand forecasting
0.3220000000	categorical data
0.3220000000	the generation
0.3220000000	expert opinions
0.3220000000	signal recovery
0.3220000000	the fisher
0.3220000000	sharp edges
0.3220000000	inference procedure
0.3220000000	inference vi
0.3220000000	annotation tool
0.3220000000	theoretically grounded
0.3220000000	the observed
0.3220000000	improving performance
0.3220000000	stream cnn
0.3220000000	attentional mechanism
0.3220000000	memory requirements
0.3220000000	linear dynamical
0.3220000000	proposed methods
0.3220000000	units gpus
0.3220000000	methods tend
0.3220000000	active research
0.3220000000	feature detection
0.3220000000	constraint modelling
0.3220000000	communication bandwidth
0.3220000000	semantic tagging
0.3220000000	globally optimal
0.3220000000	architecture consisting
0.3220000000	method compares
0.3220000000	semantic knowledge
0.3220000000	clustering approach
0.3220000000	automatic extraction
0.3220000000	imperfect information
0.3220000000	held out
0.3220000000	pedestrian detector
0.3220000000	misclassification rates
0.3220000000	lesion classification
0.3220000000	redundant computations
0.3220000000	pde based
0.3220000000	business intelligence
0.3220000000	conversation context
0.3220000000	systematic evaluation
0.3220000000	received significant
0.3220000000	data cleaning
0.3220000000	based technique
0.3220000000	declarative programming
0.3220000000	recent development
0.3220000000	parameter selection
0.3220000000	rl algorithms
0.3220000000	light source
0.3220000000	type ii
0.3220000000	distinctive features
0.3220000000	uniform sampling
0.3220000000	type logical
0.3220000000	graph representations
0.3220000000	latest advances
0.3220000000	large volumes
0.3220000000	images acquired
0.3220000000	cognitive abilities
0.3220000000	selection mechanism
0.3220000000	approximation scheme
0.3220000000	risk bounds
0.3220000000	surveillance systems
0.3220000000	relative pose
0.3220000000	diverse set
0.3220000000	basic properties
0.3220000000	and deep
0.3220000000	bayesian treatment
0.3220000000	potential benefits
0.3220000000	plant classification
0.3220000000	rapid growth
0.3220000000	deductive reasoning
0.3210000000	a conditional random field
0.3210000000	for weakly supervised object
0.3210000000	a wide variety of
0.3210000000	a hidden markov model
0.3210000000	a gaussian mixture model
0.3210000000	the long short term
0.3210000000	an equivalence relation
0.3210000000	the fractal dimension
0.3210000000	deep fully convolutional
0.3210000000	negative matrix factorization
0.3210000000	sheds light on
0.3210000000	knowledge bases kbs
0.3210000000	the case of
0.3210000000	the study of
0.3210000000	in domain data
0.3210000000	strongly convex functions
0.3210000000	the secret image
0.3210000000	low dimensional embedding
0.3210000000	low dimensional representations
0.3210000000	time variant adaptive
0.3210000000	deep learning approach
0.3210000000	of sample extension
0.3210000000	recent deep learning
0.3210000000	neural networks based
0.3210000000	the behavior of
0.3210000000	the curse of
0.3210000000	the excess risk
0.3210000000	sufficient conditions for
0.3210000000	3d motion tracking
0.3210000000	high level semantic
0.3210000000	machine learning approach
0.3210000000	source domain to
0.3210000000	large scale real
0.3210000000	long term goal
0.3210000000	the reasoning process
0.3210000000	accelerated gradient descent
0.3210000000	shows superior
0.3210000000	shows significant
0.3210000000	performed experiments
0.3210000000	algorithm compares
0.3210000000	sparse coefficients
0.3210000000	desirable properties
0.3210000000	sparse combination
0.3210000000	conduct extensive
0.3210000000	higher layers
0.3210000000	solving real
0.3210000000	resonance images
0.3210000000	regression classification
0.3210000000	insufficient training
0.3210000000	flexible framework
0.3210000000	processing tools
0.3210000000	clinical applications
0.3210000000	present experiments
0.3210000000	solving inverse
0.3210000000	rapidly evolving
0.3210000000	formal model
0.3210000000	integer linear
0.3210000000	scale mixtures
0.3210000000	gpu based
0.3210000000	ontology based
0.3210000000	network consisting
0.3210000000	supervised representation
0.3210000000	reasoning tasks
0.3210000000	theoretical basis
0.3210000000	basis function
0.3210000000	generate images
0.3210000000	image text
0.3210000000	outperforms prior
0.3210000000	visual relationship
0.3210000000	discrete energy
0.3210000000	3d hand
0.3210000000	geometric information
0.3210000000	polynomial number
0.3210000000	strongly equivalent
0.3210000000	examples include
0.3210000000	set consisting
0.3210000000	set based
0.3210000000	deep deterministic
0.3210000000	microscopy images
0.3210000000	research efforts
0.3210000000	biometric data
0.3210000000	results reported
0.3210000000	firing rate
0.3210000000	efficient method
0.3210000000	minimax optimal
0.3210000000	efficient methods
0.3210000000	important implications
0.3210000000	audio visual
0.3210000000	existing results
0.3210000000	matrix based
0.3210000000	difficult task
0.3210000000	existing cnn
0.3210000000	modern deep
0.3210000000	the ratio
0.3210000000	the subject
0.3210000000	the ground
0.3210000000	important aspect
0.3210000000	important class
0.3210000000	important problems
0.3210000000	dempster s
0.3210000000	approximate nearest
0.3210000000	query translation
0.3210000000	automated classification
0.3210000000	learning high
0.3210000000	optimization based
0.3210000000	memory usage
0.3210000000	automated methods
0.3210000000	linear support
0.3210000000	structure based
0.3210000000	methods applied
0.3210000000	methods perform
0.3210000000	standard machine
0.3210000000	automated analysis
0.3210000000	joint estimation
0.3210000000	simple algorithm
0.3210000000	standard data
0.3210000000	learning representations
0.3210000000	learning latent
0.3210000000	joint optimization
0.3210000000	binary quadratic
0.3210000000	small number
0.3210000000	including deep
0.3210000000	urban areas
0.3210000000	evaluation method
0.3210000000	kernel estimation
0.3210000000	matching lower
0.3210000000	empirically evaluated
0.3210000000	finds applications
0.3210000000	squared error
0.3210000000	fast algorithm
0.3210000000	cnn trained
0.3210000000	extreme multi
0.3210000000	convergence behavior
0.3210000000	art methods
0.3210000000	empirically validate
0.3210000000	semantic description
0.3210000000	method referred
0.3210000000	achieves higher
0.3210000000	level visual
0.3210000000	graphical representation
0.3210000000	low shot
0.3210000000	evaluation results
0.3210000000	human attention
0.3210000000	complex interactions
0.3210000000	multispectral imaging
0.3210000000	hypernymy detection
0.3210000000	neuroimaging data
0.3210000000	rl methods
0.3210000000	smaller set
0.3210000000	swarm optimization
0.3210000000	sample sizes
0.3210000000	world data
0.3210000000	data examples
0.3210000000	data experiments
0.3210000000	data log
0.3210000000	significant challenge
0.3210000000	based collaborative
0.3210000000	alternative approach
0.3210000000	recent success
0.3210000000	based language
0.3210000000	based multi
0.3210000000	recent theoretical
0.3210000000	based active
0.3210000000	based neural
0.3210000000	based optical
0.3210000000	significant attention
0.3210000000	based evaluation
0.3210000000	robust detection
0.3210000000	alternative method
0.3210000000	broad class
0.3210000000	log p
0.3210000000	large intra
0.3210000000	training recurrent
0.3210000000	mathematical analysis
0.3210000000	finite number
0.3210000000	approach works
0.3210000000	provide sufficient
0.3210000000	key characteristics
0.3210000000	dataset comprising
0.3210000000	computational approach
0.3210000000	large graphs
0.3210000000	training instances
0.3210000000	dataset collected
0.3210000000	finally experimental
0.3210000000	translation task
0.3210000000	log gabor
0.3210000000	multi subject
0.3210000000	cognitive load
0.3210000000	demonstrate significant
0.3210000000	large volume
0.3210000000	training generative
0.3210000000	large size
0.3210000000	heavily depend
0.3210000000	topological features
0.3210000000	affective computing
0.3210000000	magnitude faster
0.3210000000	internal model
0.3210000000	minimal spanning
0.3210000000	multiclass svm
0.3210000000	anomaly detectors
0.3210000000	classification regression
0.3210000000	classification rate
0.3210000000	average accuracy
0.3210000000	object categorization
0.3210000000	probabilistic interpretation
0.3210000000	effectively deal
0.3210000000	generalization properties
0.3210000000	logical formulas
0.3210000000	problem arises
0.3210000000	multiple levels
0.3210000000	maximum clique
0.3210000000	maximum number
0.3210000000	multiple modalities
0.3210000000	lower level
0.3210000000	distributed evolutionary
0.3210000000	phrase representations
0.3210000000	detection segmentation
0.3200000000	the expectation maximization em
0.3200000000	regret bound of o
0.3200000000	image as input and
0.3200000000	a reproducing kernel hilbert
0.3200000000	a deep convolutional neural
0.3200000000	the time complexity of
0.3200000000	the reproducing kernel hilbert
0.3200000000	recent developments in
0.3200000000	the phase transition
0.3200000000	the convolution operator
0.3200000000	active learning algorithms
0.3200000000	transfer learning framework
0.3200000000	the attention model
0.3200000000	the intra class
0.3200000000	the recovery of
0.3200000000	number of training
0.3200000000	achieved promising results
0.3200000000	dempster shafer s
0.3200000000	and spectral information
0.3200000000	logic programming systems
0.3200000000	deep learning architecture
0.3200000000	deep learning architectures
0.3200000000	the traffic flow
0.3200000000	regularized empirical risk
0.3200000000	the regularization term
0.3200000000	machine learning ml
0.3200000000	the gaussian process
0.3200000000	risk minimization erm
0.3200000000	the direction of
0.3200000000	the surrogate loss
0.3200000000	efficient and scalable
0.3200000000	the surrogate model
0.3200000000	low level visual
0.3200000000	periods of time
0.3200000000	to end approach
0.3200000000	neural network model
0.3200000000	to end models
0.3200000000	explicit representation
0.3200000000	wide applications
0.3200000000	primary visual
0.3200000000	sparse principal
0.3200000000	higher levels
0.3200000000	nonlinear partial
0.3200000000	model complexity
0.3200000000	structured light
0.3200000000	nonparametric bayesian
0.3200000000	sparse logistic
0.3200000000	problems arising
0.3200000000	free reinforcement
0.3200000000	future development
0.3200000000	improve classification
0.3200000000	depth analysis
0.3200000000	image style
0.3200000000	face data
0.3200000000	satisfactory results
0.3200000000	datasets shows
0.3200000000	framework consisting
0.3200000000	traditional machine
0.3200000000	network layers
0.3200000000	visual cues
0.3200000000	hr images
0.3200000000	natural extension
0.3200000000	language generation
0.3200000000	discrete graphical
0.3200000000	stochastic neighbor
0.3200000000	computation cost
0.3200000000	comprehensive analysis
0.3200000000	background model
0.3200000000	ablation study
0.3200000000	dimensional euclidean
0.3200000000	simultaneous estimation
0.3200000000	comparative evaluation
0.3200000000	head poses
0.3200000000	wavelet filters
0.3200000000	event driven
0.3200000000	control based
0.3200000000	hybrid deep
0.3200000000	accurate estimation
0.3200000000	exponential number
0.3200000000	chain graphs
0.3200000000	accurate detection
0.3200000000	domain models
0.3200000000	deep convolution
0.3200000000	shown great
0.3200000000	deep artificial
0.3200000000	domain shift
0.3200000000	support vectors
0.3200000000	vision problems
0.3200000000	results achieved
0.3200000000	efficient approach
0.3200000000	generalized belief
0.3200000000	parametric models
0.3200000000	matrix estimation
0.3200000000	improved classification
0.3200000000	the cumulative
0.3200000000	physics engine
0.3200000000	tracking by
0.3200000000	important feature
0.3200000000	the topics
0.3200000000	inference problems
0.3200000000	online reinforcement
0.3200000000	regularized empirical
0.3200000000	encoding scheme
0.3200000000	automated segmentation
0.3200000000	linear measurements
0.3200000000	typically rely
0.3200000000	optimization strategy
0.3200000000	continuous vector
0.3200000000	linear constraints
0.3200000000	linear activation
0.3200000000	pooling method
0.3200000000	learning mixtures
0.3200000000	simple efficient
0.3200000000	capture long
0.3200000000	automated generation
0.3200000000	joint probability
0.3200000000	learning paradigm
0.3200000000	learning distributed
0.3200000000	automated driving
0.3200000000	achieve faster
0.3200000000	small amounts
0.3200000000	benchmark functions
0.3200000000	open problems
0.3200000000	positive semi
0.3200000000	tournament selection
0.3200000000	multinomial distributions
0.3200000000	semantic labeling
0.3200000000	kernel space
0.3200000000	showing promising
0.3200000000	scoring function
0.3200000000	complex environments
0.3200000000	convergence guarantee
0.3200000000	multimodal deep
0.3200000000	automatic post
0.3200000000	achieves promising
0.3200000000	automatic selection
0.3200000000	shot recognition
0.3200000000	automatic discovery
0.3200000000	automatic relevance
0.3200000000	human language
0.3200000000	action space
0.3200000000	kernel support
0.3200000000	semidefinite matrices
0.3200000000	mathcal g
0.3200000000	randomized search
0.3200000000	based path
0.3200000000	instance based
0.3200000000	dnn acoustic
0.3200000000	based edge
0.3200000000	regularization based
0.3200000000	significant increase
0.3200000000	based super
0.3200000000	based techniques
0.3200000000	based localization
0.3200000000	pairwise interactions
0.3200000000	automatically generate
0.3200000000	applying deep
0.3200000000	easily applied
0.3200000000	recent machine
0.3200000000	easily generalized
0.3200000000	easily combined
0.3200000000	directly applicable
0.3200000000	total number
0.3200000000	multi camera
0.3200000000	provide high
0.3200000000	labelled training
0.3200000000	features generated
0.3200000000	computational approaches
0.3200000000	multi valued
0.3200000000	optimal algorithms
0.3200000000	training convolutional
0.3200000000	multi feature
0.3200000000	mathematical framework
0.3200000000	features directly
0.3200000000	approach consists
0.3200000000	translation invariant
0.3200000000	large set
0.3200000000	large quantity
0.3200000000	graph theory
0.3200000000	training algorithms
0.3200000000	approach compares
0.3200000000	exact computation
0.3200000000	log concave
0.3200000000	large receptive
0.3200000000	quantized neural
0.3200000000	similarity metric
0.3200000000	vectors extracted
0.3200000000	selection based
0.3200000000	fitness function
0.3200000000	cluster assignments
0.3200000000	normal distribution
0.3200000000	temporal dependencies
0.3200000000	synaptic connections
0.3200000000	gaussian distribution
0.3200000000	labeled samples
0.3200000000	handwritten chinese
0.3200000000	neural codes
0.3200000000	classification accuracies
0.3200000000	neural architecture
0.3200000000	breaking constraints
0.3200000000	common approach
0.3200000000	video action
0.3200000000	average error
0.3200000000	patch level
0.3200000000	video datasets
0.3200000000	rank minimization
0.3200000000	variational model
0.3200000000	convolution filters
0.3200000000	rgb camera
0.3200000000	segmentation task
0.3200000000	increasing number
0.3200000000	loss bounds
0.3200000000	multiple data
0.3200000000	loss based
0.3200000000	a bag
0.3200000000	obtain high
0.3200000000	detection rate
0.3200000000	multiple types
0.3200000000	distributed computing
0.3200000000	multiple sources
0.3200000000	multiple instances
0.3190000000	the art deep learning
0.3190000000	a markov random field
0.3190000000	the experimental results demonstrate
0.3190000000	deep neural networks dnn
0.3190000000	recurrent neural network language
0.3190000000	low dimensional euclidean space
0.3190000000	labeled training data
0.3190000000	based neural machine
0.3190000000	natural language understanding
0.3190000000	the student network
0.3190000000	knowledge base kb
0.3190000000	learning vector quantization
0.3190000000	the basal ganglia
0.3190000000	experimental evaluation demonstrates
0.3190000000	conducted extensive experiments
0.3190000000	neural turing machine
0.3190000000	fuzzy logic and
0.3190000000	the capacity of
0.3190000000	best first search
0.3190000000	deep learning algorithm
0.3190000000	deep learning approaches
0.3190000000	an input image
0.3190000000	experimental results obtained
0.3190000000	deep learning algorithms
0.3190000000	lstm recurrent neural
0.3190000000	machine learning problems
0.3190000000	linear function approximation
0.3190000000	approximate inference algorithms
0.3190000000	machine learning applications
0.3190000000	integer linear programming
0.3190000000	a topic model
0.3190000000	large scale image
0.3190000000	the turing test
0.3190000000	fine grained entity
0.3190000000	a fully automated
0.3190000000	common sense knowledge
0.3190000000	nearest neighbor ann
0.3190000000	combinatorial multi
0.3190000000	explicit feedback
0.3190000000	larger number
0.3190000000	algorithm runs
0.3190000000	highly sensitive
0.3190000000	highly scalable
0.3190000000	energy efficient
0.3190000000	user defined
0.3190000000	sparse gaussian
0.3190000000	sparse dictionary
0.3190000000	combinatorial structure
0.3190000000	algorithm significantly
0.3190000000	correlation decay
0.3190000000	sampling based
0.3190000000	model learns
0.3190000000	present experimental
0.3190000000	solving large
0.3190000000	public transportation
0.3190000000	model results
0.3190000000	preliminary experimental
0.3190000000	representations learned
0.3190000000	learned directly
0.3190000000	sparse inverse
0.3190000000	solving optimization
0.3190000000	processing applications
0.3190000000	word order
0.3190000000	transfer function
0.3190000000	larger class
0.3190000000	technical documents
0.3190000000	user interaction
0.3190000000	robotic navigation
0.3190000000	algorithm results
0.3190000000	purely data
0.3190000000	gained considerable
0.3190000000	energy function
0.3190000000	public benchmark
0.3190000000	public data
0.3190000000	prediction task
0.3190000000	scale linearly
0.3190000000	scale machine
0.3190000000	dependent plasticity
0.3190000000	image database
0.3190000000	phase retrieval
0.3190000000	convex combination
0.3190000000	raw data
0.3190000000	evidence lower
0.3190000000	unsupervised discovery
0.3190000000	unsupervised methods
0.3190000000	algorithms developed
0.3190000000	network fcn
0.3190000000	single fixed
0.3190000000	prior works
0.3190000000	sufficiently large
0.3190000000	network based
0.3190000000	performance based
0.3190000000	machine classifier
0.3190000000	reasoning based
0.3190000000	subject matter
0.3190000000	single photon
0.3190000000	network trained
0.3190000000	framework named
0.3190000000	convex loss
0.3190000000	sequence alignment
0.3190000000	parallel computing
0.3190000000	language independent
0.3190000000	parallel stochastic
0.3190000000	case based
0.3190000000	image pixels
0.3190000000	ranking method
0.3190000000	solution quality
0.3190000000	ontology language
0.3190000000	japanese english
0.3190000000	resolution sr
0.3190000000	invariant object
0.3190000000	frequency domain
0.3190000000	incomplete data
0.3190000000	youtube videos
0.3190000000	techniques developed
0.3190000000	classifiers trained
0.3190000000	vision applications
0.3190000000	spatial features
0.3190000000	evaluate performance
0.3190000000	reward functions
0.3190000000	deep representations
0.3190000000	deep image
0.3190000000	spatial layout
0.3190000000	uci data
0.3190000000	conducted extensive
0.3190000000	validation procedure
0.3190000000	results apply
0.3190000000	efficient reinforcement
0.3190000000	test based
0.3190000000	test cases
0.3190000000	generalized gaussian
0.3190000000	rare events
0.3190000000	integral operator
0.3190000000	offline handwritten
0.3190000000	traffic safety
0.3190000000	complete set
0.3190000000	iterative shrinkage
0.3190000000	regularized linear
0.3190000000	gene ontology
0.3190000000	simulation studies
0.3190000000	qa dataset
0.3190000000	propagation neural
0.3190000000	published papers
0.3190000000	tracking based
0.3190000000	technique called
0.3190000000	the setting
0.3190000000	biological systems
0.3190000000	rewriting systems
0.3190000000	the identity
0.3190000000	iterative algorithms
0.3190000000	autonomous systems
0.3190000000	important aspects
0.3190000000	group sparsity
0.3190000000	main sources
0.3190000000	controlled natural
0.3190000000	optimisation problems
0.3190000000	news sources
0.3190000000	small sample
0.3190000000	methods suffer
0.3190000000	information coming
0.3190000000	cost compared
0.3190000000	cost effective
0.3190000000	feature matching
0.3190000000	sufficient training
0.3190000000	iteration complexity
0.3190000000	hidden states
0.3190000000	generic object
0.3190000000	local patches
0.3190000000	information flow
0.3190000000	continuous state
0.3190000000	information content
0.3190000000	query answers
0.3190000000	methods focus
0.3190000000	achieve higher
0.3190000000	sufficient number
0.3190000000	binary decision
0.3190000000	joint modeling
0.3190000000	local receptive
0.3190000000	popular tool
0.3190000000	standard datasets
0.3190000000	hidden state
0.3190000000	learning setting
0.3190000000	learning strategy
0.3190000000	path signature
0.3190000000	survival times
0.3190000000	popular machine
0.3190000000	popular class
0.3190000000	intuitive physics
0.3190000000	retrieval ir
0.3190000000	methods relying
0.3190000000	feature spaces
0.3190000000	ground level
0.3190000000	color names
0.3190000000	storage requirement
0.3190000000	constraint based
0.3190000000	articulated pose
0.3190000000	general classes
0.3190000000	infinite number
0.3190000000	recently shown
0.3190000000	art results
0.3190000000	automatic recognition
0.3190000000	inverse rendering
0.3190000000	squared euclidean
0.3190000000	connected components
0.3190000000	estimation error
0.3190000000	low number
0.3190000000	fast computation
0.3190000000	decision rules
0.3190000000	learn low
0.3190000000	search spaces
0.3190000000	effective sample
0.3190000000	automatic identification
0.3190000000	automatic classification
0.3190000000	representation based
0.3190000000	learn high
0.3190000000	art performance
0.3190000000	achieves superior
0.3190000000	human behavior
0.3190000000	human object
0.3190000000	relevant features
0.3190000000	state spaces
0.3190000000	complex real
0.3190000000	state tracking
0.3190000000	improvements compared
0.3190000000	method results
0.3190000000	general class
0.3190000000	general object
0.3190000000	automatic machine
0.3190000000	automatic annotation
0.3190000000	fully data
0.3190000000	inverse roles
0.3190000000	method consistently
0.3190000000	perceptual image
0.3190000000	careful tuning
0.3190000000	spectral signatures
0.3190000000	sensor network
0.3190000000	cubic regularization
0.3190000000	euclidean space
0.3190000000	lasso problem
0.3190000000	smaller number
0.3190000000	distance based
0.3190000000	conventional machine
0.3190000000	alternative approaches
0.3190000000	sample efficiency
0.3190000000	extract information
0.3190000000	benchmarks including
0.3190000000	systematic study
0.3190000000	conditional adversarial
0.3190000000	specific types
0.3190000000	specific set
0.3190000000	specific training
0.3190000000	data analytics
0.3190000000	data structure
0.3190000000	step sizes
0.3190000000	based evolutionary
0.3190000000	step based
0.3190000000	based framework
0.3190000000	recent methods
0.3190000000	world wide
0.3190000000	words approach
0.3190000000	automatically learns
0.3190000000	variable number
0.3190000000	automatically learn
0.3190000000	regularization terms
0.3190000000	noise free
0.3190000000	data consisting
0.3190000000	data generated
0.3190000000	data distributions
0.3190000000	dnn based
0.3190000000	significant differences
0.3190000000	robust visual
0.3190000000	robust face
0.3190000000	significant advantages
0.3190000000	distance metrics
0.3190000000	solve optimization
0.3190000000	projection pursuit
0.3190000000	briefly discussed
0.3190000000	primitive actions
0.3190000000	large sets
0.3190000000	extremely large
0.3190000000	selection problem
0.3190000000	fusion based
0.3190000000	multi frame
0.3190000000	current deep
0.3190000000	exact probabilistic
0.3190000000	aided diagnosis
0.3190000000	translation performance
0.3190000000	combining information
0.3190000000	key features
0.3190000000	ladder networks
0.3190000000	studies focus
0.3190000000	character based
0.3190000000	large text
0.3190000000	approach builds
0.3190000000	provide insights
0.3190000000	key aspects
0.3190000000	computational aspects
0.3190000000	computational costs
0.3190000000	multi context
0.3190000000	key properties
0.3190000000	provide empirical
0.3190000000	images obtained
0.3190000000	computational requirements
0.3190000000	explanatory variables
0.3190000000	large variation
0.3190000000	provide examples
0.3190000000	rnn based
0.3190000000	current machine
0.3190000000	constant step
0.3190000000	weighted low
0.3190000000	poor performance
0.3190000000	growing number
0.3190000000	space based
0.3190000000	subgraph matching
0.3190000000	features learned
0.3190000000	similarity graph
0.3190000000	adversarial learning
0.3190000000	images collected
0.3190000000	large improvements
0.3190000000	optimal solutions
0.3190000000	large annotated
0.3190000000	approximation error
0.3190000000	formulation leads
0.3190000000	prove convergence
0.3190000000	residual learning
0.3190000000	mental states
0.3190000000	tailed distributions
0.3190000000	intrinsic image
0.3190000000	object boundaries
0.3190000000	n tuple
0.3190000000	random variable
0.3190000000	frac log
0.3190000000	unlike prior
0.3190000000	synthetic datasets
0.3190000000	random noise
0.3190000000	decisions based
0.3190000000	diverse range
0.3190000000	stopping rule
0.3190000000	convolutional filters
0.3190000000	fmri data
0.3190000000	video games
0.3190000000	manually labelled
0.3190000000	minimal number
0.3190000000	probabilistic generative
0.3190000000	multiplicative update
0.3190000000	classification results
0.3190000000	networks fcn
0.3190000000	previously learned
0.3190000000	extracting information
0.3190000000	networks convnets
0.3190000000	logic gates
0.3190000000	object category
0.3190000000	bayesian active
0.3190000000	achieved great
0.3190000000	hierarchical structure
0.3190000000	temporal dynamics
0.3190000000	temporal data
0.3190000000	permutation matrices
0.3190000000	multiple target
0.3190000000	distributed machine
0.3190000000	quantization methods
0.3190000000	interesting applications
0.3190000000	noisy nature
0.3190000000	limited number
0.3190000000	imaging based
0.3190000000	metric space
0.3190000000	classical machine
0.3190000000	segmentation based
0.3190000000	detection based
0.3190000000	occur frequently
0.3190000000	multiple tasks
0.3190000000	multiple sets
0.3190000000	analysis fda
0.3190000000	detection task
0.3190000000	works focus
0.3190000000	lower computational
0.3190000000	detection tracking
0.3190000000	movie review
0.3190000000	layered neural
0.3180000000	an estimation of distribution
0.3180000000	significant improvements over
0.3180000000	clustering algorithm based
0.3180000000	high dimensional feature
0.3180000000	conditional generative adversarial
0.3180000000	bayesian nonparametric model
0.3180000000	object detection based
0.3180000000	perform extensive experiments
0.3180000000	superior performance compared
0.3180000000	statistics machine learning
0.3180000000	achieves significant improvements
0.3180000000	the kullback leibler
0.3180000000	training convolutional neural
0.3180000000	graph based semi
0.3180000000	weakly supervised object
0.3180000000	scale invariant feature
0.3180000000	linear support vector
0.3180000000	recently convolutional neural
0.3180000000	spurious local minima
0.3180000000	symmetric positive semidefinite
0.3180000000	real world optimization
0.3180000000	deep learning techniques
0.3180000000	based semi supervised
0.3180000000	image segmentation based
0.3180000000	neural networks trained
0.3180000000	lidar point clouds
0.3180000000	image classification object
0.3180000000	the pac bayesian
0.3180000000	experimental results based
0.3180000000	takes advantage of
0.3180000000	extensive experiments conducted
0.3180000000	feature selection based
0.3180000000	model free reinforcement
0.3180000000	learn long term
0.3180000000	feature selection method
0.3180000000	on mobile devices
0.3180000000	principle component analysis
0.3180000000	large scale machine
0.3180000000	multi agent reinforcement
0.3180000000	detection and classification
0.3180000000	large scale problems
0.3180000000	large scale visual
0.3180000000	large scale datasets
0.3180000000	fine grained sentiment
0.3180000000	fine grained image
0.3180000000	stochastic gradient variational
0.3180000000	feedforward neural networks
0.3180000000	ray computed tomography
0.3180000000	feed forward neural
0.3180000000	deep artificial neural
0.3180000000	require large amounts
0.3180000000	multi layer neural
0.3180000000	probabilistic latent semantic
0.3180000000	multi task feature
0.3180000000	recurrent convolutional neural
0.3180000000	similarity measure based
0.3180000000	sparse linear combinations
0.3180000000	shows promising
0.3180000000	experimental design
0.3180000000	experimental evidence
0.3180000000	direct estimation
0.3180000000	descriptors based
0.3180000000	clinical decision
0.3180000000	algorithm leads
0.3180000000	gram matrix
0.3180000000	algorithm relies
0.3180000000	algorithm achieves
0.3180000000	highly dependent
0.3180000000	algorithm applied
0.3180000000	wide range
0.3180000000	algorithm inspired
0.3180000000	categories based
0.3180000000	model consists
0.3180000000	jointly trained
0.3180000000	jointly learns
0.3180000000	sparse low
0.3180000000	algorithm outperforms
0.3180000000	powerful machine
0.3180000000	nonparametric latent
0.3180000000	layer neural
0.3180000000	wide variety
0.3180000000	produce high
0.3180000000	model suitable
0.3180000000	coco detection
0.3180000000	representations based
0.3180000000	higher classification
0.3180000000	generates high
0.3180000000	model checking
0.3180000000	accuracy comparable
0.3180000000	baseline approaches
0.3180000000	algorithm based
0.3180000000	implementation based
0.3180000000	architectures based
0.3180000000	present state
0.3180000000	accuracy compared
0.3180000000	generative modeling
0.3180000000	problems based
0.3180000000	models based
0.3180000000	model leads
0.3180000000	performed based
0.3180000000	mechanism based
0.3180000000	timetabling problem
0.3180000000	trained neural
0.3180000000	sparse high
0.3180000000	models rely
0.3180000000	higher quality
0.3180000000	recognition systems
0.3180000000	structured low
0.3180000000	evaluated based
0.3180000000	present empirical
0.3180000000	problems related
0.3180000000	model consisting
0.3180000000	models derived
0.3180000000	model trained
0.3180000000	model called
0.3180000000	model predictive
0.3180000000	model significantly
0.3180000000	model fitting
0.3180000000	challenging real
0.3180000000	problems ranging
0.3180000000	vector cosine
0.3180000000	apply machine
0.3180000000	word error
0.3180000000	agent based
0.3180000000	transfer functions
0.3180000000	exploratory data
0.3180000000	algorithm consists
0.3180000000	future researches
0.3180000000	nonlinear diffusion
0.3180000000	improve state
0.3180000000	defined based
0.3180000000	applications ranging
0.3180000000	applications related
0.3180000000	computed based
0.3180000000	preliminary experiments
0.3180000000	regression problem
0.3180000000	bandit problem
0.3180000000	rhetorical structure
0.3180000000	advanced machine
0.3180000000	prediction error
0.3180000000	practical machine
0.3180000000	practical problems
0.3180000000	probabilities based
0.3180000000	prior domain
0.3180000000	methodology based
0.3180000000	fewer number
0.3180000000	performance comparable
0.3180000000	high dynamic
0.3180000000	empirical performance
0.3180000000	unsupervised pre
0.3180000000	strong theoretical
0.3180000000	experimentally validate
0.3180000000	unsupervised machine
0.3180000000	machine classification
0.3180000000	network consists
0.3180000000	performance compared
0.3180000000	generate high
0.3180000000	sequence model
0.3180000000	performance metrics
0.3180000000	datasets consisting
0.3180000000	performance relative
0.3180000000	high classification
0.3180000000	performance improvements
0.3180000000	network parameters
0.3180000000	framework based
0.3180000000	network topology
0.3180000000	discrete random
0.3180000000	image dataset
0.3180000000	outperforms state
0.3180000000	criterion based
0.3180000000	network models
0.3180000000	theoretical properties
0.3180000000	experimentally demonstrate
0.3180000000	prediction based
0.3180000000	natural scenes
0.3180000000	estimated based
0.3180000000	high temporal
0.3180000000	visual search
0.3180000000	textual data
0.3180000000	supervised dictionary
0.3180000000	species recognition
0.3180000000	stochastic approximation
0.3180000000	stochastic processes
0.3180000000	framework called
0.3180000000	framework leads
0.3180000000	framework consists
0.3180000000	point sets
0.3180000000	supervised dimensionality
0.3180000000	solution based
0.3180000000	distribution algorithms
0.3180000000	algorithms based
0.3180000000	stochastic neural
0.3180000000	stochastic block
0.3180000000	algorithms rely
0.3180000000	observed data
0.3180000000	multilayer neural
0.3180000000	point wise
0.3180000000	plasticity rule
0.3180000000	dimensional feature
0.3180000000	incomplete information
0.3180000000	geometric lattice
0.3180000000	differential entropy
0.3180000000	research directions
0.3180000000	efficient large
0.3180000000	hybrid knowledge
0.3180000000	svm classifier
0.3180000000	statistical methods
0.3180000000	research effort
0.3180000000	numerous real
0.3180000000	markov random
0.3180000000	set consists
0.3180000000	gradient method
0.3180000000	vision systems
0.3180000000	augmented neural
0.3180000000	promising experimental
0.3180000000	expected number
0.3180000000	deep boltzmann
0.3180000000	deep nets
0.3180000000	deep belief
0.3180000000	parameters based
0.3180000000	linguistic features
0.3180000000	results comparable
0.3180000000	deep domain
0.3180000000	results compared
0.3180000000	research focuses
0.3180000000	improvement compared
0.3180000000	results based
0.3180000000	results showing
0.3180000000	modeling based
0.3180000000	report experimental
0.3180000000	unknown number
0.3180000000	efficient compared
0.3180000000	efficient estimation
0.3180000000	techniques based
0.3180000000	varying number
0.3180000000	simulations based
0.3180000000	audio event
0.3180000000	iterative optimization
0.3180000000	superior results
0.3180000000	important role
0.3180000000	em algorithm
0.3180000000	technique based
0.3180000000	existing hashing
0.3180000000	extracted based
0.3180000000	systems based
0.3180000000	audio features
0.3180000000	scheme based
0.3180000000	music information
0.3180000000	clusters based
0.3180000000	regularized loss
0.3180000000	modern standard
0.3180000000	systems suffer
0.3180000000	systems rely
0.3180000000	existing models
0.3180000000	modern data
0.3180000000	existing state
0.3180000000	existing works
0.3180000000	technique inspired
0.3180000000	existing machine
0.3180000000	annotated training
0.3180000000	planning based
0.3180000000	regularized optimal
0.3180000000	information encoded
0.3180000000	methods including
0.3180000000	slightly modified
0.3180000000	automated reasoning
0.3180000000	lexical ambiguity
0.3180000000	simultaneously learns
0.3180000000	optimization framework
0.3180000000	local metric
0.3180000000	linear threshold
0.3180000000	benchmark data
0.3180000000	information embedded
0.3180000000	information provided
0.3180000000	information contained
0.3180000000	strategy based
0.3180000000	continuous random
0.3180000000	rich representation
0.3180000000	binary pattern
0.3180000000	developed based
0.3180000000	linear temporal
0.3180000000	sets based
0.3180000000	methods based
0.3180000000	achieve significantly
0.3180000000	linear inverse
0.3180000000	urban planning
0.3180000000	long short
0.3180000000	standard benchmarks
0.3180000000	methods rely
0.3180000000	discourse segmentation
0.3180000000	optimization method
0.3180000000	small compared
0.3180000000	historical data
0.3180000000	proposed based
0.3180000000	generating high
0.3180000000	structure present
0.3180000000	embedding models
0.3180000000	proposed framework
0.3180000000	binary neural
0.3180000000	typically based
0.3180000000	information directed
0.3180000000	procedure based
0.3180000000	information derived
0.3180000000	generating adversarial
0.3180000000	small scale
0.3180000000	information obtained
0.3180000000	optimization bo
0.3180000000	achieve real
0.3180000000	simple type
0.3180000000	linear dimensionality
0.3180000000	classes based
0.3180000000	constraint logic
0.3180000000	detectors based
0.3180000000	compressive sampling
0.3180000000	ultimate goal
0.3180000000	advantages compared
0.3180000000	designed specifically
0.3180000000	method relies
0.3180000000	recently neural
0.3180000000	recently developed
0.3180000000	arbitrary number
0.3180000000	automatic construction
0.3180000000	definite kernels
0.3180000000	empirically evaluate
0.3180000000	patterns based
0.3180000000	semantic concepts
0.3180000000	semantic image
0.3180000000	automatic generation
0.3180000000	complex high
0.3180000000	generated based
0.3180000000	sift flow
0.3180000000	low computational
0.3180000000	architecture based
0.3180000000	paper deals
0.3180000000	learn long
0.3180000000	level cnn
0.3180000000	semantic features
0.3180000000	method significantly
0.3180000000	relevant information
0.3180000000	estimator based
0.3180000000	semantic search
0.3180000000	method compared
0.3180000000	clustering sc
0.3180000000	semantic textual
0.3180000000	metrics based
0.3180000000	architecture consists
0.3180000000	frame level
0.3180000000	banach space
0.3180000000	automatic analysis
0.3180000000	level set
0.3180000000	evaluation based
0.3180000000	evaluation campaign
0.3180000000	general artificial
0.3180000000	independence test
0.3180000000	study based
0.3180000000	low spatial
0.3180000000	evaluation criteria
0.3180000000	extreme learning
0.3180000000	alarm rate
0.3180000000	designed based
0.3180000000	method applied
0.3180000000	method consists
0.3180000000	method leads
0.3180000000	thermal images
0.3180000000	graphical user
0.3180000000	spectral methods
0.3180000000	cloud service
0.3180000000	blurred images
0.3180000000	recent state
0.3180000000	operators based
0.3180000000	conditional random
0.3180000000	presented based
0.3180000000	applying machine
0.3180000000	functions based
0.3180000000	based encoder
0.3180000000	class label
0.3180000000	instance level
0.3180000000	pose datasets
0.3180000000	issues related
0.3180000000	conventional methods
0.3180000000	data arising
0.3180000000	qualitative experiments
0.3180000000	data extracted
0.3180000000	handle high
0.3180000000	based subspace
0.3180000000	data processing
0.3180000000	based feature
0.3180000000	based solely
0.3180000000	robust principal
0.3180000000	data structures
0.3180000000	directly related
0.3180000000	data obtained
0.3180000000	approaches rely
0.3180000000	data fusion
0.3180000000	data pre
0.3180000000	approaches based
0.3180000000	based reinforcement
0.3180000000	epistemic uncertainty
0.3180000000	data sampled
0.3180000000	sample extension
0.3180000000	words based
0.3180000000	significant impact
0.3180000000	aspects related
0.3180000000	data coming
0.3180000000	real applications
0.3180000000	successive frames
0.3180000000	input features
0.3180000000	words representation
0.3180000000	detector based
0.3180000000	approach focuses
0.3180000000	constructed based
0.3180000000	large state
0.3180000000	dataset compared
0.3180000000	training procedure
0.3180000000	dynamic environments
0.3180000000	dynamic vision
0.3180000000	applied directly
0.3180000000	computational analysis
0.3180000000	translation process
0.3180000000	adversarial machine
0.3180000000	adversarial image
0.3180000000	adversarial noise
0.3180000000	adversarial neural
0.3180000000	measures based
0.3180000000	provide users
0.3180000000	provide experimental
0.3180000000	training machine
0.3180000000	graph construction
0.3180000000	graph structure
0.3180000000	computational power
0.3180000000	task compared
0.3180000000	large training
0.3180000000	margin based
0.3180000000	approach relies
0.3180000000	adversarial domain
0.3180000000	finally based
0.3180000000	large real
0.3180000000	bleu scores
0.3180000000	images generated
0.3180000000	approach leads
0.3180000000	numerical solutions
0.3180000000	approach results
0.3180000000	tasks ranging
0.3180000000	features related
0.3180000000	features based
0.3180000000	approach significantly
0.3180000000	features derived
0.3180000000	training neural
0.3180000000	images based
0.3180000000	performs significantly
0.3180000000	tasks compared
0.3180000000	dataset consists
0.3180000000	approach compared
0.3180000000	tasks based
0.3180000000	residual neural
0.3180000000	approach based
0.3180000000	independent component
0.3180000000	static images
0.3180000000	images compared
0.3180000000	similarity search
0.3180000000	derived based
0.3180000000	quality compared
0.3180000000	optimal number
0.3180000000	optimal sample
0.3180000000	experiments performed
0.3180000000	solely based
0.3180000000	greedy algorithm
0.3180000000	huge amount
0.3180000000	smooth functions
0.3180000000	topological data
0.3180000000	gatys et
0.3180000000	appearance based
0.3180000000	solved efficiently
0.3180000000	predictions based
0.3180000000	regions based
0.3180000000	hierarchical feature
0.3180000000	error rmse
0.3180000000	outperform state
0.3180000000	random finite
0.3180000000	cluster analysis
0.3180000000	classification error
0.3180000000	end users
0.3180000000	neural language
0.3180000000	bayesian matrix
0.3180000000	bayesian deep
0.3180000000	perform significantly
0.3180000000	nuisance parameters
0.3180000000	convolutional encoder
0.3180000000	autoregressive models
0.3180000000	average number
0.3180000000	networks based
0.3180000000	error reduction
0.3180000000	bayesian belief
0.3180000000	temporal classification
0.3180000000	probabilistic topic
0.3180000000	achieved promising
0.3180000000	hierarchical reinforcement
0.3180000000	drastically reduced
0.3180000000	gender bias
0.3180000000	distributed vector
0.3180000000	calculated based
0.3180000000	distributed word
0.3180000000	recursive neural
0.3180000000	metric based
0.3180000000	maps generated
0.3180000000	kernels based
0.3180000000	feedforward neural
0.3180000000	noisy labels
0.3180000000	problem faced
0.3180000000	noisy images
0.3180000000	analysis relies
0.3180000000	auto tagging
0.3180000000	solutions based
0.3180000000	convolution neural
0.3180000000	mathbf d
0.3180000000	function based
0.3180000000	selected based
0.3180000000	analysis leads
0.3180000000	analysis based
0.3180000000	detect anomalies
0.3180000000	detection algorithms
0.3180000000	design based
0.3180000000	filters based
0.3180000000	problem based
0.3180000000	function defined
0.3180000000	limited training
0.3180000000	multiple choice
0.3180000000	hands free
0.3170000000	extensive experiments on real world
0.3170000000	end to end learning framework
0.3170000000	action recognition in videos
0.3170000000	bayesian networks from data
0.3170000000	gray level co occurrence
0.3170000000	the multi armed bandit
0.3170000000	number of nodes in
0.3170000000	a vital role
0.3170000000	differentially private algorithms
0.3170000000	significantly faster than
0.3170000000	a loss function
0.3170000000	the mnist dataset
0.3170000000	rule based models
0.3170000000	quality in use
0.3170000000	prior knowledge of
0.3170000000	detect and segment
0.3170000000	the logistic loss
0.3170000000	face recognition accuracy
0.3170000000	the translation quality
0.3170000000	the compression ratio
0.3170000000	the physical world
0.3170000000	lower bound on
0.3170000000	a rule based
0.3170000000	the ladder network
0.3170000000	log 2 n
0.3170000000	the variational distribution
0.3170000000	zero shot recognition
0.3170000000	a convolutional network
0.3170000000	a graphical model
0.3170000000	neural network rnn
0.3170000000	based multi label
0.3170000000	neural network architectures
0.3170000000	neural network architecture
0.3170000000	experiments conducted on
0.3170000000	trained end to
0.3170000000	highly discriminative
0.3170000000	depth images
0.3170000000	readily applicable
0.3170000000	web search
0.3170000000	structured data
0.3170000000	software projects
0.3170000000	formal analysis
0.3170000000	models including
0.3170000000	norm penalized
0.3170000000	experimental data
0.3170000000	knowledge discovery
0.3170000000	mixed data
0.3170000000	robot assisted
0.3170000000	public datasets
0.3170000000	network structures
0.3170000000	visual representations
0.3170000000	histology images
0.3170000000	source sentences
0.3170000000	prediction performance
0.3170000000	competitive baselines
0.3170000000	performance gains
0.3170000000	traditional features
0.3170000000	parallel computation
0.3170000000	network analysis
0.3170000000	discrete choice
0.3170000000	visual content
0.3170000000	image details
0.3170000000	unsupervised approach
0.3170000000	prediction models
0.3170000000	prediction market
0.3170000000	outperforms existing
0.3170000000	sequence prediction
0.3170000000	high confidence
0.3170000000	markup language
0.3170000000	deep architecture
0.3170000000	gradient langevin
0.3170000000	statistical inference
0.3170000000	domain experts
0.3170000000	domain independent
0.3170000000	gradient mcmc
0.3170000000	previous results
0.3170000000	efficient inference
0.3170000000	nlp applications
0.3170000000	efficient closed
0.3170000000	accurate predictions
0.3170000000	test sets
0.3170000000	knapsack problem
0.3170000000	sensed images
0.3170000000	the size
0.3170000000	genomic data
0.3170000000	the security
0.3170000000	expert knowledge
0.3170000000	existing zsl
0.3170000000	the reconstructed
0.3170000000	online communities
0.3170000000	coordinate optimization
0.3170000000	learning systems
0.3170000000	programming approach
0.3170000000	regular gans
0.3170000000	dramatic reduction
0.3170000000	recall curve
0.3170000000	information sources
0.3170000000	context sensitive
0.3170000000	methods attempt
0.3170000000	local optimum
0.3170000000	information gain
0.3170000000	joint probabilities
0.3170000000	feature sets
0.3170000000	minimization problems
0.3170000000	open domain
0.3170000000	learning rule
0.3170000000	linear program
0.3170000000	learning scheme
0.3170000000	learning capability
0.3170000000	feature descriptors
0.3170000000	feature fusion
0.3170000000	positive negative
0.3170000000	laplace approximation
0.3170000000	motion flow
0.3170000000	imagenet classification
0.3170000000	lstm recurrent
0.3170000000	lstm layers
0.3170000000	semantic representations
0.3170000000	fast convergence
0.3170000000	human subjects
0.3170000000	human brain
0.3170000000	evaluation shows
0.3170000000	competing methods
0.3170000000	level performance
0.3170000000	low false
0.3170000000	convergence properties
0.3170000000	sensor array
0.3170000000	pac learning
0.3170000000	chip memory
0.3170000000	camera viewpoints
0.3170000000	conditional gans
0.3170000000	lie groups
0.3170000000	data distribution
0.3170000000	recent approaches
0.3170000000	application areas
0.3170000000	parameter space
0.3170000000	parameter settings
0.3170000000	parameter free
0.3170000000	parameter values
0.3170000000	generation process
0.3170000000	significant advances
0.3170000000	significant role
0.3170000000	syntactic semantic
0.3170000000	digital images
0.3170000000	transductive learning
0.3170000000	penalized likelihood
0.3170000000	adversarial networks
0.3170000000	pixel values
0.3170000000	training method
0.3170000000	finite set
0.3170000000	computational models
0.3170000000	current state
0.3170000000	similarity score
0.3170000000	similarity learning
0.3170000000	training sets
0.3170000000	large class
0.3170000000	viable alternative
0.3170000000	perform competitively
0.3170000000	abstract syntax
0.3170000000	random sampling
0.3170000000	text based
0.3170000000	manually segmented
0.3170000000	neural architectures
0.3170000000	common methods
0.3170000000	candidate answers
0.3170000000	disparity map
0.3170000000	hierarchical model
0.3170000000	excellent performance
0.3170000000	function subject
0.3170000000	rgb images
0.3170000000	cross language
0.3170000000	keypoint detection
0.3170000000	reduced set
0.3170000000	function evaluations
0.3170000000	variational methods
0.3170000000	cycle consistency
0.3170000000	predefined categories
0.3160000000	task in natural language processing
0.3160000000	learning and semi supervised learning
0.3160000000	the sp theory of intelligence
0.3160000000	the problem of low rank
0.3160000000	increasing attention in recent years
0.3160000000	the nonnegative matrix factorization
0.3160000000	the art machine learning
0.3160000000	neural machine translation models
0.3160000000	the machine learning community
0.3160000000	propose and study
0.3160000000	the energy function
0.3160000000	the ell 2
0.3160000000	object detection systems
0.3160000000	an expectation maximization
0.3160000000	the imagenet dataset
0.3160000000	the length of
0.3160000000	squared error loss
0.3160000000	spatio temporal action
0.3160000000	wall clock time
0.3160000000	the 1 1
0.3160000000	the bilateral filter
0.3160000000	the sum of
0.3160000000	neural networks cnns
0.3160000000	deep learning methods
0.3160000000	depends only on
0.3160000000	machine learning methods
0.3160000000	1 norm minimization
0.3160000000	lower bounds on
0.3160000000	the end of
0.3160000000	neural network based
0.3160000000	neural network models
0.3160000000	the junction tree
0.3160000000	present experimental results
0.3160000000	recognition performance
0.3160000000	baseline methods
0.3160000000	sparse representations
0.3160000000	web based
0.3160000000	sparse recovery
0.3160000000	tree based
0.3160000000	recognition task
0.3160000000	problems involving
0.3160000000	model outperforms
0.3160000000	additional information
0.3160000000	one class
0.3160000000	model achieves
0.3160000000	knowledge transfer
0.3160000000	regression model
0.3160000000	structured dictionary
0.3160000000	problems including
0.3160000000	shared task
0.3160000000	knowledge acquisition
0.3160000000	model free
0.3160000000	regression problems
0.3160000000	highly efficient
0.3160000000	regression models
0.3160000000	rigid structure
0.3160000000	visual perception
0.3160000000	supervised classification
0.3160000000	face attributes
0.3160000000	case study
0.3160000000	prediction tasks
0.3160000000	competitive performance
0.3160000000	prior information
0.3160000000	change detection
0.3160000000	image sequences
0.3160000000	image pairs
0.3160000000	image datasets
0.3160000000	sequence tagging
0.3160000000	image representations
0.3160000000	datasets including
0.3160000000	traditional methods
0.3160000000	visual data
0.3160000000	visual information
0.3160000000	visual quality
0.3160000000	language understanding
0.3160000000	image pyramid
0.3160000000	image based
0.3160000000	language processing
0.3160000000	game theory
0.3160000000	stochastic games
0.3160000000	basis functions
0.3160000000	background knowledge
0.3160000000	factor analysis
0.3160000000	intelligent systems
0.3160000000	incomplete observations
0.3160000000	event detection
0.3160000000	test data
0.3160000000	spatial information
0.3160000000	specialized hardware
0.3160000000	deep models
0.3160000000	gradient step
0.3160000000	predict future
0.3160000000	vision tasks
0.3160000000	svm classifiers
0.3160000000	previous research
0.3160000000	expert systems
0.3160000000	multivariate gaussian
0.3160000000	inter class
0.3160000000	annotated data
0.3160000000	service robots
0.3160000000	sensitivity analysis
0.3160000000	the curve
0.3160000000	most probable
0.3160000000	the design
0.3160000000	existing techniques
0.3160000000	the combination
0.3160000000	the physical
0.3160000000	improved performance
0.3160000000	inference algorithm
0.3160000000	discriminative features
0.3160000000	region based
0.3160000000	optimization techniques
0.3160000000	learning process
0.3160000000	learning rates
0.3160000000	learning approaches
0.3160000000	local descriptors
0.3160000000	linear classifiers
0.3160000000	benchmark problems
0.3160000000	information theory
0.3160000000	active region
0.3160000000	optimization methods
0.3160000000	embedding space
0.3160000000	minimization problem
0.3160000000	information processing
0.3160000000	proposed algorithm
0.3160000000	proposed model
0.3160000000	learning approach
0.3160000000	benchmark dataset
0.3160000000	learning rate
0.3160000000	learning models
0.3160000000	embedding dimension
0.3160000000	programming language
0.3160000000	feature set
0.3160000000	feature based
0.3160000000	context dependent
0.3160000000	learning techniques
0.3160000000	learning method
0.3160000000	feature map
0.3160000000	incremental learning
0.3160000000	recently introduced
0.3160000000	fully automatic
0.3160000000	decision problems
0.3160000000	low noise
0.3160000000	low light
0.3160000000	low quality
0.3160000000	estimation problem
0.3160000000	stability properties
0.3160000000	human activities
0.3160000000	cnn architecture
0.3160000000	empirically demonstrate
0.3160000000	complex networks
0.3160000000	semantic relations
0.3160000000	human actions
0.3160000000	human perception
0.3160000000	search strategy
0.3160000000	complex systems
0.3160000000	method called
0.3160000000	structural information
0.3160000000	protein coding
0.3160000000	conditional distributions
0.3160000000	regularization path
0.3160000000	compression rate
0.3160000000	data dependent
0.3160000000	real datasets
0.3160000000	latent representations
0.3160000000	based model
0.3160000000	recent research
0.3160000000	input image
0.3160000000	asymptotically normal
0.3160000000	based algorithms
0.3160000000	input images
0.3160000000	noise levels
0.3160000000	noise suppression
0.3160000000	noise tolerant
0.3160000000	automatically generated
0.3160000000	approach achieves
0.3160000000	training process
0.3160000000	log t
0.3160000000	multi temporal
0.3160000000	training images
0.3160000000	multi core
0.3160000000	ensemble methods
0.3160000000	optimal solution
0.3160000000	current approaches
0.3160000000	current methods
0.3160000000	ensemble learning
0.3160000000	streaming data
0.3160000000	numerical results
0.3160000000	content based
0.3160000000	reference image
0.3160000000	object localization
0.3160000000	previously proposed
0.3160000000	video data
0.3160000000	recommendation systems
0.3160000000	hierarchical clustering
0.3160000000	classification methods
0.3160000000	labeled examples
0.3160000000	object classification
0.3160000000	convolutional features
0.3160000000	neural models
0.3160000000	tangent space
0.3160000000	classification algorithms
0.3160000000	recurrent network
0.3160000000	text corpora
0.3160000000	classification models
0.3160000000	object detector
0.3160000000	predictive accuracy
0.3160000000	classification problem
0.3160000000	recurrent connections
0.3160000000	text descriptions
0.3160000000	recurrent networks
0.3160000000	text documents
0.3160000000	label pairs
0.3160000000	probabilistic model
0.3160000000	patch based
0.3160000000	logic based
0.3160000000	distributed representations
0.3160000000	probability measures
0.3160000000	loss in
0.3160000000	phrase based
0.3160000000	document classification
0.3160000000	analysis shows
0.3160000000	a similarity
0.3160000000	noisy data
0.3160000000	texture patterns
0.3160000000	function approximation
0.3160000000	problem instances
0.3160000000	detection methods
0.3160000000	generalization performance
0.3160000000	unlabelled data
0.3160000000	conceptual knowledge
0.3150000000	synthetic and real world data sets
0.3150000000	synthetic and real world datasets demonstrate
0.3150000000	the performance of machine learning
0.3150000000	method of multipliers admm algorithm
0.3150000000	convolutional and fully connected layers
0.3150000000	problem in natural language processing
0.3150000000	experiments on real world data
0.3150000000	experimental results on benchmark datasets
0.3150000000	synthetic and real data sets
0.3150000000	synthetic and real data demonstrate
0.3150000000	low signal to noise ratio
0.3150000000	training of deep neural networks
0.3150000000	end to end deep learning
0.3150000000	training of convolutional neural networks
0.3150000000	sparse coding and dictionary learning
0.3150000000	real and synthetic data sets
0.3150000000	experimental results on real world
0.3150000000	both synthetic and real data
0.3150000000	the generalization performance of
0.3150000000	the minimum description length
0.3150000000	quality of reconstructed images
0.3150000000	for k means clustering
0.3150000000	representing and reasoning about
0.3150000000	processing and machine learning
0.3150000000	kernel principal component analysis
0.3150000000	multi label zero shot
0.3150000000	a sparse linear combination
0.3150000000	the online learning setting
0.3150000000	a high dimensional space
0.3150000000	for multi label classification
0.3150000000	matrix factorization problems
0.3150000000	natural language descriptions
0.3150000000	the sentiment of
0.3150000000	recently emerged as
0.3150000000	the side information
0.3150000000	an experimental evaluation
0.3150000000	multi label classifier
0.3150000000	character level models
0.3150000000	latent variable graphical
0.3150000000	deep gaussian processes
0.3150000000	prior knowledge about
0.3150000000	matrix completion problem
0.3150000000	energy based models
0.3150000000	visual domain adaptation
0.3150000000	supervised machine learning
0.3150000000	pose estimation problem
0.3150000000	taking advantage of
0.3150000000	and space complexities
0.3150000000	multimodal sentiment analysis
0.3150000000	biological neural networks
0.3150000000	multivariate time series
0.3150000000	face detection and
0.3150000000	extensive experiments on
0.3150000000	a function of
0.3150000000	high resolution satellite
0.3150000000	multi relational learning
0.3150000000	metric learning problem
0.3150000000	the multi class
0.3150000000	k support norm
0.3150000000	breast cancer diagnosis
0.3150000000	an attention based
0.3150000000	upper bounds on
0.3150000000	larger data
0.3150000000	layer perceptrons
0.3150000000	algorithm called
0.3150000000	exploration methods
0.3150000000	web document
0.3150000000	formal argumentation
0.3150000000	recognition tasks
0.3150000000	generative model
0.3150000000	recognition problem
0.3150000000	model parameters
0.3150000000	social psychology
0.3150000000	readily available
0.3150000000	boundary estimation
0.3150000000	knowledge representation
0.3150000000	technical note
0.3150000000	major obstacle
0.3150000000	normalization methods
0.3150000000	applications including
0.3150000000	social network
0.3150000000	mixed norm
0.3150000000	molecular dynamics
0.3150000000	playing programs
0.3150000000	supplementary video
0.3150000000	scale image
0.3150000000	mapping slam
0.3150000000	face analysis
0.3150000000	manifold structure
0.3150000000	fewer iterations
0.3150000000	datasets demonstrate
0.3150000000	discrete optimization
0.3150000000	network structure
0.3150000000	network architecture
0.3150000000	prior distributions
0.3150000000	remains challenging
0.3150000000	image recognition
0.3150000000	single node
0.3150000000	natural selection
0.3150000000	network architectures
0.3150000000	question classification
0.3150000000	image regions
0.3150000000	image priors
0.3150000000	network information
0.3150000000	machine reading
0.3150000000	language networks
0.3150000000	image information
0.3150000000	high performance
0.3150000000	ranking problems
0.3150000000	differential operators
0.3150000000	statistical models
0.3150000000	greatly improve
0.3150000000	commonly encountered
0.3150000000	gradient based
0.3150000000	mu c
0.3150000000	machines based
0.3150000000	order logic
0.3150000000	vision based
0.3150000000	deep network
0.3150000000	results demonstrate
0.3150000000	minimum cost
0.3150000000	event representations
0.3150000000	previous methods
0.3150000000	test images
0.3150000000	precise localization
0.3150000000	tracking failures
0.3150000000	improved accuracy
0.3150000000	the inverse
0.3150000000	the computational
0.3150000000	the relevance
0.3150000000	dictionary size
0.3150000000	existing algorithms
0.3150000000	m times
0.3150000000	the acquisition
0.3150000000	the landscape
0.3150000000	matrix factorizations
0.3150000000	binary classification
0.3150000000	methods require
0.3150000000	storage costs
0.3150000000	cost functions
0.3150000000	learning features
0.3150000000	proposed method
0.3150000000	optimization algorithms
0.3150000000	continuous domains
0.3150000000	information distance
0.3150000000	feature learning
0.3150000000	feature vector
0.3150000000	binary constraints
0.3150000000	learning based
0.3150000000	learning problems
0.3150000000	proposed approach
0.3150000000	path algorithm
0.3150000000	learning mechanism
0.3150000000	attention based
0.3150000000	learning methods
0.3150000000	learning human
0.3150000000	optimization algorithm
0.3150000000	simple linear
0.3150000000	learning framework
0.3150000000	learning problem
0.3150000000	learning tasks
0.3150000000	dense crf
0.3150000000	nice properties
0.3150000000	scoring functions
0.3150000000	recently proposed
0.3150000000	semantic information
0.3150000000	decision variables
0.3150000000	estimation methods
0.3150000000	representation learning
0.3150000000	kernel trick
0.3150000000	lstm layer
0.3150000000	cnn based
0.3150000000	global radiation
0.3150000000	semantic graph
0.3150000000	method works
0.3150000000	method achieves
0.3150000000	reconstruction network
0.3150000000	method outperforms
0.3150000000	subspace structure
0.3150000000	spectral spatial
0.3150000000	omega log
0.3150000000	cloud registration
0.3150000000	neighbour classifier
0.3150000000	data likelihood
0.3150000000	real data
0.3150000000	data features
0.3150000000	data analysis
0.3150000000	based classifiers
0.3150000000	based sequence
0.3150000000	based method
0.3150000000	based knowledge
0.3150000000	based approach
0.3150000000	evolutionary algorithm
0.3150000000	step ahead
0.3150000000	data sources
0.3150000000	specific classifiers
0.3150000000	data efficiency
0.3150000000	player games
0.3150000000	data collection
0.3150000000	based approaches
0.3150000000	input data
0.3150000000	acyclic causal
0.3150000000	large datasets
0.3150000000	tasks including
0.3150000000	incorporate prior
0.3150000000	independent sets
0.3150000000	soft set
0.3150000000	multi focus
0.3150000000	approach outperforms
0.3150000000	related tasks
0.3150000000	graph based
0.3150000000	tasks involving
0.3150000000	experiments demonstrate
0.3150000000	concept based
0.3150000000	key ingredients
0.3150000000	risk prediction
0.3150000000	evolution strategies
0.3150000000	evolution process
0.3150000000	candidate terms
0.3150000000	stacked denoising
0.3150000000	networks bnns
0.3150000000	gaussian rbf
0.3150000000	anomaly detector
0.3150000000	predictive models
0.3150000000	bayesian network
0.3150000000	relative merits
0.3150000000	predictive performance
0.3150000000	temporal information
0.3150000000	probabilistic models
0.3150000000	convolutional architectures
0.3150000000	classification performance
0.3150000000	random samples
0.3150000000	probabilistic planning
0.3150000000	diagonal matrix
0.3150000000	man machine
0.3150000000	permutation testing
0.3150000000	rank constraint
0.3150000000	weight matrix
0.3150000000	unlabeled samples
0.3150000000	problem solving
0.3150000000	decomposition svd
0.3150000000	ctc loss
0.3150000000	care unit
0.3150000000	focal loss
0.3140000000	simulated and real world data
0.3140000000	experimental results on synthetic and
0.3140000000	experiments on real world datasets
0.3140000000	the multi armed bandit problem
0.3140000000	rate of o 1 t
0.3140000000	graph convolutional neural networks
0.3140000000	the evidence lower bound
0.3140000000	in o n 2
0.3140000000	text detection and recognition
0.3140000000	matrix factorization nmf
0.3140000000	compares favorably with
0.3140000000	variational inference algorithms
0.3140000000	a valuable tool
0.3140000000	relative pose estimation
0.3140000000	permutation invariant mnist
0.3140000000	brain magnetic resonance
0.3140000000	conditional independence tests
0.3140000000	graph based methods
0.3140000000	markov chain model
0.3140000000	decision tree learning
0.3140000000	of working memory
0.3140000000	the log likelihood
0.3140000000	unbiased black box
0.3140000000	learning multiple tasks
0.3140000000	a high quality
0.3140000000	significant improvement over
0.3140000000	r n times
0.3140000000	the obtained results
0.3140000000	chinese character recognition
0.3140000000	noise removal from
0.3140000000	a broader range
0.3140000000	large scale neural
0.3140000000	o m method
0.3140000000	the geometry of
0.3140000000	the topology of
0.3140000000	an algorithmic framework
0.3140000000	dictionary learning algorithms
0.3140000000	deep face recognition
0.3140000000	policy gradient method
0.3140000000	sparse network
0.3140000000	web server
0.3140000000	combinatorial optimisation
0.3140000000	sparse model
0.3140000000	transfer network
0.3140000000	models hmms
0.3140000000	word clusters
0.3140000000	paragraph vector
0.3140000000	homogeneous regions
0.3140000000	formal definitions
0.3140000000	registration methods
0.3140000000	network nodes
0.3140000000	resolution approach
0.3140000000	language recognition
0.3140000000	image prediction
0.3140000000	background modeling
0.3140000000	dimensional representation
0.3140000000	resolution input
0.3140000000	point matching
0.3140000000	hashing based
0.3140000000	dependency tree
0.3140000000	research papers
0.3140000000	linguistic phenomena
0.3140000000	pascal context
0.3140000000	view data
0.3140000000	rotation scaling
0.3140000000	traffic surveillance
0.3140000000	histopathology images
0.3140000000	mixture network
0.3140000000	the relations
0.3140000000	sonar images
0.3140000000	online handwritten
0.3140000000	the light
0.3140000000	important properties
0.3140000000	active user
0.3140000000	optimization technique
0.3140000000	speech features
0.3140000000	rich morphology
0.3140000000	lexical entries
0.3140000000	discriminatively learned
0.3140000000	query complexity
0.3140000000	continuous speech
0.3140000000	learning multiple
0.3140000000	learning kernel
0.3140000000	poly 1
0.3140000000	action classification
0.3140000000	automatic method
0.3140000000	sensing image
0.3140000000	auxiliary task
0.3140000000	general formulation
0.3140000000	semantic meaning
0.3140000000	scales poorly
0.3140000000	structural diversity
0.3140000000	level vision
0.3140000000	effective approach
0.3140000000	art method
0.3140000000	state network
0.3140000000	search query
0.3140000000	recently received
0.3140000000	empirically shown
0.3140000000	implicit models
0.3140000000	merging method
0.3140000000	utility theory
0.3140000000	conditional generative
0.3140000000	move forgery
0.3140000000	data space
0.3140000000	based pose
0.3140000000	based stochastic
0.3140000000	dnn model
0.3140000000	data scarcity
0.3140000000	robust method
0.3140000000	induce sparsity
0.3140000000	acquisition functions
0.3140000000	experiments showed
0.3140000000	target image
0.3140000000	experiment shows
0.3140000000	matlab code
0.3140000000	computational photography
0.3140000000	log m
0.3140000000	residual quantization
0.3140000000	schema theory
0.3140000000	hierarchical models
0.3140000000	object parsing
0.3140000000	computing approach
0.3140000000	entropy rate
0.3140000000	asymptotic optimality
0.3140000000	output regression
0.3140000000	safe exploration
0.3140000000	1 leq
0.3140000000	flow estimation
0.3140000000	segmentation tasks
0.3140000000	segmentation dataset
0.3140000000	hyperparameter settings
0.3140000000	forecasting methods
0.3130000000	vision and natural language processing
0.3130000000	spike and slab priors
0.3130000000	the out of sample
0.3130000000	zipf s law for
0.3130000000	compares favorably to
0.3130000000	previously published results
0.3130000000	the ell 0
0.3130000000	active learning method
0.3130000000	in high dimensions
0.3130000000	the between class
0.3130000000	s t distribution
0.3130000000	a gaussian mixture
0.3130000000	specifically designed for
0.3130000000	gradient descent methods
0.3130000000	face super resolution
0.3130000000	number of clusters
0.3130000000	the encoder decoder
0.3130000000	x ray images
0.3130000000	the russian language
0.3130000000	the b matrix
0.3130000000	of digital images
0.3130000000	conditional density estimation
0.3130000000	text detection and
0.3130000000	rank minimization problem
0.3130000000	the d dimensional
0.3130000000	subspace clustering problem
0.3130000000	a mixed integer
0.3130000000	a recently developed
0.3130000000	the high resolution
0.3130000000	heterogeneous face recognition
0.3130000000	fine grained visual
0.3130000000	stochastic gradient method
0.3130000000	the link prediction
0.3130000000	the available data
0.3130000000	eye tracking data
0.3130000000	highly optimized
0.3130000000	mobile applications
0.3130000000	model driven
0.3130000000	unbiased risk
0.3130000000	box annotations
0.3130000000	word learning
0.3130000000	user feedback
0.3130000000	norm function
0.3130000000	knowledge engineering
0.3130000000	challenging problems
0.3130000000	social relation
0.3130000000	dual variables
0.3130000000	stochastic planning
0.3130000000	face representations
0.3130000000	single camera
0.3130000000	stochastic inference
0.3130000000	single valued
0.3130000000	single model
0.3130000000	high rank
0.3130000000	point of
0.3130000000	datasets i.e
0.3130000000	convex case
0.3130000000	hardware platforms
0.3130000000	background images
0.3130000000	point method
0.3130000000	dimensional models
0.3130000000	occluded regions
0.3130000000	realistic images
0.3130000000	contextual features
0.3130000000	view point
0.3130000000	hand segmentation
0.3130000000	set of
0.3130000000	spatial language
0.3130000000	control problem
0.3130000000	validation set
0.3130000000	test accuracy
0.3130000000	statistical guarantees
0.3130000000	scheduling algorithm
0.3130000000	theta t
0.3130000000	the relationships
0.3130000000	dramatically reduces
0.3130000000	existing text
0.3130000000	tracking performance
0.3130000000	achieve significant
0.3130000000	lexical features
0.3130000000	cost reduction
0.3130000000	linear dependence
0.3130000000	causal relation
0.3130000000	learning local
0.3130000000	memory based
0.3130000000	proposed algorithms
0.3130000000	retrieval accuracy
0.3130000000	small size
0.3130000000	linear modeling
0.3130000000	binary descriptors
0.3130000000	feature level
0.3130000000	binary convolutional
0.3130000000	dense captioning
0.3130000000	method improves
0.3130000000	level image
0.3130000000	pedestrian tracking
0.3130000000	decision processes
0.3130000000	field imaging
0.3130000000	field size
0.3130000000	learn multi
0.3130000000	cnn pre
0.3130000000	global localization
0.3130000000	semantic video
0.3130000000	search method
0.3130000000	human effort
0.3130000000	clustering objective
0.3130000000	data integration
0.3130000000	based queries
0.3130000000	based depth
0.3130000000	objects of
0.3130000000	qualitative results
0.3130000000	smoothing technique
0.3130000000	based regression
0.3130000000	input sequence
0.3130000000	train state
0.3130000000	log d
0.3130000000	computational performance
0.3130000000	training objective
0.3130000000	related works
0.3130000000	computational neuroscience
0.3130000000	selection scheme
0.3130000000	large databases
0.3130000000	extremely fast
0.3130000000	epsilon optimal
0.3130000000	considerable attention
0.3130000000	o ln
0.3130000000	computing resources
0.3130000000	previously introduced
0.3130000000	classifier performance
0.3130000000	basic level
0.3130000000	neural based
0.3130000000	object appearance
0.3130000000	object features
0.3130000000	minimal path
0.3130000000	classification framework
0.3130000000	temporal representation
0.3130000000	classification techniques
0.3130000000	critical points
0.3130000000	magnitude speedup
0.3130000000	medical data
0.3130000000	segmentation model
0.3130000000	limited data
0.3130000000	problem space
0.3130000000	denoising methods
0.3130000000	a function
0.3130000000	design principles
0.3120000000	supervised and semi supervised learning
0.3120000000	support vector machine svm classifier
0.3120000000	a deep neural network
0.3120000000	a neural machine translation
0.3120000000	o t 2 3
0.3120000000	full reference image quality
0.3120000000	a mathematical model
0.3120000000	this technical report
0.3120000000	the huge number
0.3120000000	software quality in
0.3120000000	hybrid deep learning
0.3120000000	on pascal voc
0.3120000000	the tasks of
0.3120000000	a synthetic dataset
0.3120000000	f1 score of
0.3120000000	the cross entropy
0.3120000000	in partially observable
0.3120000000	time series classification
0.3120000000	2d to 3d
0.3120000000	the fully connected
0.3120000000	the receiver operating
0.3120000000	a broader class
0.3120000000	space and time
0.3120000000	deep neural net
0.3120000000	for image classification
0.3120000000	one class classifiers
0.3120000000	message passing algorithms
0.3120000000	radar sar images
0.3120000000	word embedding methods
0.3120000000	english to
0.3120000000	user studies
0.3120000000	knowledge sources
0.3120000000	highly challenging
0.3120000000	robotic systems
0.3120000000	feasible solutions
0.3120000000	significantly increased
0.3120000000	datasets validate
0.3120000000	registration accuracy
0.3120000000	competitive accuracy
0.3120000000	image stimuli
0.3120000000	network to
0.3120000000	discrete data
0.3120000000	as to
0.3120000000	stochastic dual
0.3120000000	discrete cosine
0.3120000000	section 3
0.3120000000	bayes classifier
0.3120000000	markov processes
0.3120000000	sound source
0.3120000000	existing solutions
0.3120000000	map estimation
0.3120000000	the original
0.3120000000	the interactions
0.3120000000	weak learner
0.3120000000	poly n
0.3120000000	memory augmented
0.3120000000	linear programs
0.3120000000	linear transformations
0.3120000000	pooling operation
0.3120000000	local neighborhood
0.3120000000	local neighborhoods
0.3120000000	attention weights
0.3120000000	joint sparsity
0.3120000000	binary synapses
0.3120000000	hypothesis space
0.3120000000	programming lp
0.3120000000	dna sequence
0.3120000000	recently published
0.3120000000	frame based
0.3120000000	handful of
0.3120000000	td learning
0.3120000000	global optimum
0.3120000000	state estimation
0.3120000000	mathcal l
0.3120000000	paper proposes
0.3120000000	cardinality constraint
0.3120000000	mortality prediction
0.3120000000	lighting variations
0.3120000000	conventional approaches
0.3120000000	regularization parameters
0.3120000000	recent literature
0.3120000000	dialogue system
0.3120000000	recent efforts
0.3120000000	regularization scheme
0.3120000000	practice guidelines
0.3120000000	partition function
0.3120000000	approach combines
0.3120000000	landmark detection
0.3120000000	stop words
0.3120000000	quality estimation
0.3120000000	large networks
0.3120000000	reference resolution
0.3120000000	nn graph
0.3120000000	multiplicative interactions
0.3120000000	video event
0.3120000000	absolute improvement
0.3120000000	factorization machines
0.3120000000	ai planning
0.3120000000	video denoising
0.3120000000	preference handling
0.3120000000	reproducible research
0.3110000000	the task of action recognition
0.3110000000	leaky integrate and fire neurons
0.3110000000	an end to end trainable
0.3110000000	ell 1 norm of
0.3110000000	convolutional generative adversarial network
0.3110000000	based anomaly detection
0.3110000000	recent progress in
0.3110000000	decision support system
0.3110000000	k nearest neighbours
0.3110000000	the ultimate goal
0.3110000000	knowledge graph completion
0.3110000000	disjunctive logic programming
0.3110000000	low computational cost
0.3110000000	bayesian neural network
0.3110000000	method consistently outperforms
0.3110000000	a starting point
0.3110000000	machine translation evaluation
0.3110000000	the skip gram
0.3110000000	based outlier detection
0.3110000000	a viable alternative
0.3110000000	hybrid bayesian networks
0.3110000000	the human brain
0.3110000000	the cold start
0.3110000000	the superior performance
0.3110000000	experimental results on
0.3110000000	visual object recognition
0.3110000000	3d face reconstruction
0.3110000000	the desirable properties
0.3110000000	reinforcement learning algorithm
0.3110000000	a sufficient condition
0.3110000000	the risk of
0.3110000000	deep domain adaptation
0.3110000000	convex optimization problem
0.3110000000	a multi scale
0.3110000000	the expectation maximization
0.3110000000	the sensitivity of
0.3110000000	with high accuracy
0.3110000000	sparse signals
0.3110000000	jointly modeling
0.3110000000	highly structured
0.3110000000	highly desirable
0.3110000000	applications e.g
0.3110000000	sparse regression
0.3110000000	trained jointly
0.3110000000	robotic tasks
0.3110000000	model update
0.3110000000	robot vision
0.3110000000	semi automated
0.3110000000	person video
0.3110000000	different data
0.3110000000	visual tasks
0.3110000000	performance boost
0.3110000000	generate realistic
0.3110000000	single particle
0.3110000000	visual questions
0.3110000000	supervised tasks
0.3110000000	p leq
0.3110000000	geometric features
0.3110000000	statistical model
0.3110000000	hmm based
0.3110000000	labeling problem
0.3110000000	research fields
0.3110000000	svm based
0.3110000000	operational semantics
0.3110000000	penalty function
0.3110000000	inductive learning
0.3110000000	group invariant
0.3110000000	the computation
0.3110000000	the intensity
0.3110000000	discriminative learning
0.3110000000	online news
0.3110000000	term memories
0.3110000000	sensitive information
0.3110000000	methods trained
0.3110000000	memory capacity
0.3110000000	extraction method
0.3110000000	minimization model
0.3110000000	standard setting
0.3110000000	small object
0.3110000000	pooling function
0.3110000000	dense prediction
0.3110000000	sum i
0.3110000000	human aware
0.3110000000	human annotations
0.3110000000	importance weighted
0.3110000000	matching algorithm
0.3110000000	search area
0.3110000000	shot learning
0.3110000000	human faces
0.3110000000	method obtains
0.3110000000	human users
0.3110000000	approaches including
0.3110000000	instance retrieval
0.3110000000	step method
0.3110000000	based speech
0.3110000000	compression algorithm
0.3110000000	data complexity
0.3110000000	conditional models
0.3110000000	real noisy
0.3110000000	real coded
0.3110000000	camera model
0.3110000000	locally linear
0.3110000000	identification problem
0.3110000000	density maps
0.3110000000	independent feature
0.3110000000	translation based
0.3110000000	graph representation
0.3110000000	drift analysis
0.3110000000	target distribution
0.3110000000	training methods
0.3110000000	pixel based
0.3110000000	massive datasets
0.3110000000	translation output
0.3110000000	quality score
0.3110000000	shift algorithm
0.3110000000	random subset
0.3110000000	multiplicative factor
0.3110000000	activity detection
0.3110000000	dirichlet processes
0.3110000000	labeled image
0.3110000000	convolutional architecture
0.3110000000	attribute prediction
0.3110000000	object retrieval
0.3110000000	multiclass classification
0.3110000000	r fcn
0.3110000000	denoising auto
0.3110000000	multiple output
0.3110000000	count based
0.3100000000	neural networks and recurrent neural networks
0.3100000000	based on convolutional neural networks cnn
0.3100000000	natural language processing and machine learning
0.3100000000	end to end neural machine translation
0.3100000000	end to end deep neural network
0.3100000000	based on deep convolutional neural networks
0.3100000000	based on long short term memory
0.3100000000	machine learning and signal processing
0.3100000000	based on convolutional neural networks
0.3100000000	based on answer set programming
0.3100000000	dempster shafer theory of evidence
0.3100000000	artificial and real world data
0.3100000000	neural networks for image classification
0.3100000000	data mining and machine learning
0.3100000000	based on deep neural networks
0.3100000000	based on artificial neural networks
0.3100000000	convolutional and recurrent neural networks
0.3100000000	rely on hand crafted features
0.3100000000	large amounts of labeled data
0.3100000000	machine learning and pattern recognition
0.3100000000	based on stochastic gradient descent
0.3100000000	object detection and pose estimation
0.3100000000	pattern recognition and machine learning
0.3100000000	based on recurrent neural networks
0.3100000000	image classification and object detection
0.3100000000	synthetic data and real world
0.3100000000	machine learning and artificial intelligence
0.3100000000	signal processing and machine learning
0.3100000000	recent advances in machine learning
0.3100000000	datasets mnist cifar 10
0.3100000000	compared with state of
0.3100000000	in order to address
0.3100000000	for time series classification
0.3100000000	out of sample data
0.3100000000	non local means nlm
0.3100000000	particle swarm optimization algorithm
0.3100000000	a better understanding of
0.3100000000	the k nearest neighbour
0.3100000000	the first part of
0.3100000000	l 1 l 2
0.3100000000	several orders of magnitude
0.3100000000	the last years
0.3100000000	a non parametric
0.3100000000	a non trivial
0.3100000000	a mathematical framework
0.3100000000	a wider range
0.3100000000	smooth loss function
0.3100000000	mixture model gmm
0.3100000000	encoder decoder networks
0.3100000000	a posteriori map
0.3100000000	an open question
0.3100000000	the predictive performance
0.3100000000	a theoretical analysis
0.3100000000	highly dependent on
0.3100000000	the predictions of
0.3100000000	recent work on
0.3100000000	sample covariance matrix
0.3100000000	an iterative algorithm
0.3100000000	the help of
0.3100000000	previous work on
0.3100000000	least squares regression
0.3100000000	heuristic search algorithm
0.3100000000	a genetic algorithm
0.3100000000	a long standing
0.3100000000	feature extraction technique
0.3100000000	the long term
0.3100000000	a globally optimal
0.3100000000	a computationally efficient
0.3100000000	a graph based
0.3100000000	a first order
0.3100000000	human motion capture
0.3100000000	source to target
0.3100000000	under mild assumptions
0.3100000000	a multi task
0.3100000000	works well in
0.3100000000	single image depth
0.3100000000	of remote sensing
0.3100000000	hardware and software
0.3100000000	an alternative approach
0.3100000000	the type of
0.3100000000	correlation clustering
0.3100000000	mobile ad
0.3100000000	irregular domains
0.3100000000	word images
0.3100000000	surface features
0.3100000000	backtracking algorithm
0.3100000000	irrelevant features
0.3100000000	scale face
0.3100000000	theoretical guarantee
0.3100000000	localization methods
0.3100000000	stochastic algorithms
0.3100000000	image descriptor
0.3100000000	language detection
0.3100000000	center bias
0.3100000000	3d face
0.3100000000	dimensional linear
0.3100000000	bayes risk
0.3100000000	dynamics models
0.3100000000	machines and
0.3100000000	reduction techniques
0.3100000000	provably optimal
0.3100000000	efficient implementation
0.3100000000	previous efforts
0.3100000000	correction algorithm
0.3100000000	theoretically analyze
0.3100000000	confidence set
0.3100000000	the art
0.3100000000	online planning
0.3100000000	called adversarial
0.3100000000	tracking process
0.3100000000	online data
0.3100000000	the equivalence
0.3100000000	bow model
0.3100000000	information networks
0.3100000000	positive results
0.3100000000	context vectors
0.3100000000	complexity classes
0.3100000000	no longer
0.3100000000	top k
0.3100000000	become increasingly
0.3100000000	mathbb c
0.3100000000	reconstruction approaches
0.3100000000	transition matrix
0.3100000000	valued kernels
0.3100000000	based descriptors
0.3100000000	morphological operations
0.3100000000	valued representation
0.3100000000	based text
0.3100000000	based robot
0.3100000000	easily accessible
0.3100000000	broad spectrum
0.3100000000	response variables
0.3100000000	re ranking
0.3100000000	inducing inputs
0.3100000000	target policy
0.3100000000	key ideas
0.3100000000	type information
0.3100000000	target word
0.3100000000	synthetic aperture
0.3100000000	unlike conventional
0.3100000000	explicitly modeling
0.3100000000	distributed systems
0.3100000000	multiagent systems
0.3100000000	a context
0.3100000000	function approach
0.3090000000	a wide range of applications
0.3090000000	markov chain monte carlo methods
0.3090000000	both simulated and real world
0.3090000000	results on real world data
0.3090000000	on synthetic and real world
0.3090000000	the art algorithms in terms
0.3090000000	source and target domains
0.3090000000	in order to evaluate
0.3090000000	the primal and dual
0.3090000000	experiments on simulated and
0.3090000000	a radial basis
0.3090000000	linear convergence rates
0.3090000000	ell p norm
0.3090000000	the training process
0.3090000000	an optimization problem
0.3090000000	local image patches
0.3090000000	an evolutionary algorithm
0.3090000000	face recognition systems
0.3090000000	the special case
0.3090000000	in such cases
0.3090000000	data sets demonstrate
0.3090000000	deep convolutional network
0.3090000000	high computational complexity
0.3090000000	the vanishing gradient
0.3090000000	the degree of
0.3090000000	a support vector
0.3090000000	the l infty
0.3090000000	video compressive sensing
0.3090000000	the distance between
0.3090000000	an upper bound
0.3090000000	an attention mechanism
0.3090000000	models outperform
0.3090000000	model performance
0.3090000000	model uncertainty
0.3090000000	much better
0.3090000000	first person
0.3090000000	orthogonal components
0.3090000000	seq2seq model
0.3090000000	geometric structures
0.3090000000	endowed with
0.3090000000	reward signal
0.3090000000	deep supervision
0.3090000000	domain dependent
0.3090000000	results provide
0.3090000000	for segmentation
0.3090000000	statistical efficiency
0.3090000000	annotated images
0.3090000000	the perception
0.3090000000	joint distribution
0.3090000000	contrast enhanced
0.3090000000	hidden unit
0.3090000000	fully exploit
0.3090000000	semantic meanings
0.3090000000	spectral embedding
0.3090000000	challenge dataset
0.3090000000	automatically generating
0.3090000000	noise tolerance
0.3090000000	resource consumption
0.3090000000	selection procedure
0.3090000000	tensor product
0.3090000000	growing rapidly
0.3090000000	independent variables
0.3090000000	training sample
0.3090000000	fusion methods
0.3090000000	next frame
0.3090000000	million images
0.3090000000	initial results
0.3090000000	neural attention
0.3090000000	video processing
0.3090000000	recurrent layers
0.3090000000	neural activity
0.3090000000	analysis tools
0.3090000000	multiple frames
0.3090000000	road network
0.3090000000	analytical results
0.3090000000	lower layers
0.3090000000	1 eps
0.3090000000	cross document
0.3090000000	material classification
0.3080000000	cifar 10 cifar 100 and
0.3080000000	synthetic data as well as
0.3080000000	computer vision and machine learning
0.3080000000	the transferable belief model
0.3080000000	the 1 1 ea
0.3080000000	experiments on synthetic and
0.3080000000	the mutual information between
0.3080000000	the web of data
0.3080000000	set of relevant features
0.3080000000	1 and ell 2
0.3080000000	the background and foreground
0.3080000000	the total number of
0.3080000000	surrogate loss function
0.3080000000	random forest algorithm
0.3080000000	an undirected graphical
0.3080000000	the need for
0.3080000000	closely related to
0.3080000000	at different scales
0.3080000000	and support vector
0.3080000000	a user study
0.3080000000	as special cases
0.3080000000	limited computational resources
0.3080000000	voc 2007 and
0.3080000000	an objective function
0.3080000000	training deep networks
0.3080000000	a constant factor
0.3080000000	spiking neural network
0.3080000000	optimal or near
0.3080000000	the research community
0.3080000000	the clustering results
0.3080000000	nearest neighbor graph
0.3080000000	recent advances in
0.3080000000	neural network cnn
0.3080000000	category specific
0.3080000000	sensory data
0.3080000000	larger datasets
0.3080000000	highly complex
0.3080000000	wide baseline
0.3080000000	public dataset
0.3080000000	sparse learning
0.3080000000	baseline models
0.3080000000	individual words
0.3080000000	recognition problems
0.3080000000	chinese literature
0.3080000000	applications involving
0.3080000000	model training
0.3080000000	pso algorithm
0.3080000000	divided into
0.3080000000	prediction problem
0.3080000000	image despeckling
0.3080000000	prediction methods
0.3080000000	image sets
0.3080000000	semi automatically
0.3080000000	single frame
0.3080000000	language resources
0.3080000000	textual information
0.3080000000	ranking loss
0.3080000000	point estimates
0.3080000000	dimensional spaces
0.3080000000	dimensional subspaces
0.3080000000	exponentially large
0.3080000000	linguistic information
0.3080000000	gradient algorithm
0.3080000000	mining techniques
0.3080000000	reduction technique
0.3080000000	expected return
0.3080000000	policy reinforcement
0.3080000000	deep latent
0.3080000000	deep rnn
0.3080000000	collected data
0.3080000000	clique problem
0.3080000000	trading strategy
0.3080000000	extracted features
0.3080000000	multivariate data
0.3080000000	inductive inference
0.3080000000	inference problem
0.3080000000	existing systems
0.3080000000	the diagnosis
0.3080000000	important features
0.3080000000	the co
0.3080000000	feature construction
0.3080000000	linear classification
0.3080000000	linear complexity
0.3080000000	benchmark tasks
0.3080000000	optimization approach
0.3080000000	context awareness
0.3080000000	embedding algorithms
0.3080000000	linear networks
0.3080000000	linear systems
0.3080000000	binary sequences
0.3080000000	color information
0.3080000000	yale b
0.3080000000	welch algorithm
0.3080000000	action selection
0.3080000000	action sequences
0.3080000000	semantic representation
0.3080000000	clustering technique
0.3080000000	mnist dataset
0.3080000000	complex background
0.3080000000	state and
0.3080000000	communication complexity
0.3080000000	search optimization
0.3080000000	search strategies
0.3080000000	efficiently learn
0.3080000000	specific target
0.3080000000	compact representations
0.3080000000	regularization technique
0.3080000000	noise models
0.3080000000	an object
0.3080000000	based architecture
0.3080000000	data source
0.3080000000	slice sampling
0.3080000000	camera localization
0.3080000000	lung segmentation
0.3080000000	density matrices
0.3080000000	poor scalability
0.3080000000	reference images
0.3080000000	dataset bias
0.3080000000	considerable improvements
0.3080000000	multi attribute
0.3080000000	graph structures
0.3080000000	reason about
0.3080000000	training error
0.3080000000	power plant
0.3080000000	tasks e.g
0.3080000000	translation of
0.3080000000	o 1
0.3080000000	emotion classification
0.3080000000	cluster validity
0.3080000000	increasingly complex
0.3080000000	decoding models
0.3080000000	n rho
0.3080000000	n ln
0.3080000000	similar images
0.3080000000	synthetic dataset
0.3080000000	neural circuits
0.3080000000	predictive distributions
0.3080000000	entropy based
0.3080000000	text in
0.3080000000	body orientation
0.3080000000	cycle consistent
0.3080000000	noisy speech
0.3080000000	probability bounds
0.3080000000	document representation
0.3080000000	potential functions
0.3080000000	multiple domains
0.3070000000	the sample complexity of learning
0.3070000000	a feed forward neural
0.3070000000	in order to overcome
0.3070000000	a method for learning
0.3070000000	method outperforms state of
0.3070000000	the 0 1 loss
0.3070000000	k nearest neighbor knn
0.3070000000	kullback leibler divergence between
0.3070000000	the hyper parameters
0.3070000000	an information theoretic
0.3070000000	at https github.com
0.3070000000	temporal difference methods
0.3070000000	k means clustering
0.3070000000	refer to as
0.3070000000	an open problem
0.3070000000	the expressive power
0.3070000000	the position of
0.3070000000	the hyperspectral image
0.3070000000	in machine translation
0.3070000000	a high level
0.3070000000	the minimax regret
0.3070000000	and multi label
0.3070000000	a well established
0.3070000000	time strategy games
0.3070000000	the proposed framework
0.3070000000	fine grained categorization
0.3070000000	a black box
0.3070000000	low rank approximation
0.3070000000	for visual object
0.3070000000	the assumption of
0.3070000000	stochastic and adversarial
0.3070000000	agent environment
0.3070000000	running time
0.3070000000	invariant feature
0.3070000000	argumentation framework
0.3070000000	image completion
0.3070000000	kinds of
0.3070000000	focusing on
0.3070000000	accounting for
0.3070000000	insights into
0.3070000000	decomposed into
0.3070000000	moving camera
0.3070000000	belongs to
0.3070000000	cope with
0.3070000000	the example
0.3070000000	modern sat
0.3070000000	squad dataset
0.3070000000	relationship between
0.3070000000	thousands of
0.3070000000	led to
0.3070000000	the reduction
0.3070000000	the neuron
0.3070000000	the exponential
0.3070000000	the documents
0.3070000000	the improvement
0.3070000000	constraint solving
0.3070000000	memory cell
0.3070000000	lfw dataset
0.3070000000	action prediction
0.3070000000	serve as
0.3070000000	naive bayesian
0.3070000000	of depth
0.3070000000	stand alone
0.3070000000	of belief
0.3070000000	state variables
0.3070000000	recognize objects
0.3070000000	parsing algorithms
0.3070000000	pairwise similarity
0.3070000000	responsible for
0.3070000000	relationships between
0.3070000000	represented as
0.3070000000	graph regularization
0.3070000000	de identification
0.3070000000	multi granularity
0.3070000000	paraphrase detection
0.3070000000	computing with
0.3070000000	parameterized complexity
0.3070000000	intelligence and
0.3070000000	temporal structure
0.3070000000	text lines
0.3070000000	classification systems
0.3070000000	affected by
0.3070000000	notion of
0.3070000000	a region
0.3070000000	increasing attention
0.3070000000	material properties
0.3070000000	millions of
0.3060000000	recognition of human activities
0.3060000000	under consideration for acceptance
0.3060000000	a very large number
0.3060000000	many real world problems
0.3060000000	dedicated expectation maximization em
0.3060000000	coordinate descent methods
0.3060000000	the von mises
0.3060000000	non dominated sorting
0.3060000000	significantly better than
0.3060000000	this paper proposes
0.3060000000	the vocabulary size
0.3060000000	value function approximation
0.3060000000	a pre trained
0.3060000000	upper bounded by
0.3060000000	probabilistic graphical model
0.3060000000	black box models
0.3060000000	a machine learning
0.3060000000	a low dimensional
0.3060000000	a knowledge base
0.3060000000	of support vector
0.3060000000	signal processing and
0.3060000000	value at risk
0.3060000000	a real world
0.3060000000	the extraction of
0.3060000000	a constraint satisfaction
0.3060000000	a model for
0.3060000000	the online learning
0.3060000000	a large scale
0.3060000000	the real world
0.3060000000	the architecture of
0.3060000000	the dimensionality of
0.3060000000	dynamic programming algorithms
0.3060000000	a multi label
0.3060000000	the presented approach
0.3060000000	the identity of
0.3060000000	the deep learning
0.3060000000	the importance of
0.3060000000	naturally arises
0.3060000000	robot interaction
0.3060000000	user ratings
0.3060000000	depth from
0.3060000000	shallow parsing
0.3060000000	energy landscape
0.3060000000	box attack
0.3060000000	irls algorithm
0.3060000000	section 4
0.3060000000	posed inverse
0.3060000000	practical implications
0.3060000000	focuses on
0.3060000000	wasserstein metric
0.3060000000	regarded as
0.3060000000	vision sensors
0.3060000000	spatial location
0.3060000000	properties of
0.3060000000	insights gained
0.3060000000	depend on
0.3060000000	biometric recognition
0.3060000000	mutually independent
0.3060000000	extracted from
0.3060000000	main innovation
0.3060000000	the composition
0.3060000000	the difference
0.3060000000	the diversity
0.3060000000	nmf problem
0.3060000000	limiting factor
0.3060000000	storage capacity
0.3060000000	programming cp
0.3060000000	speech to
0.3060000000	wireless networks
0.3060000000	scoring metric
0.3060000000	tend to
0.3060000000	close to
0.3060000000	generated by
0.3060000000	automatic video
0.3060000000	of facial
0.3060000000	embedded platforms
0.3060000000	connected crf
0.3060000000	partial occlusions
0.3060000000	reconstruction model
0.3060000000	grammatical relations
0.3060000000	definite matrices
0.3060000000	transition dynamics
0.3060000000	composed of
0.3060000000	focused on
0.3060000000	consist of
0.3060000000	aspects of
0.3060000000	instance detection
0.3060000000	dynamic regret
0.3060000000	produced by
0.3060000000	target object
0.3060000000	unit interval
0.3060000000	related to
0.3060000000	combined with
0.3060000000	likelihood ml
0.3060000000	fed into
0.3060000000	derived from
0.3060000000	position orientation
0.3060000000	version of
0.3060000000	content analysis
0.3060000000	facto standard
0.3060000000	chest x
0.3060000000	ordinal embedding
0.3060000000	obtained by
0.3060000000	activity patterns
0.3060000000	applicable to
0.3060000000	multiplicative noise
0.3060000000	temporal networks
0.3060000000	drawn independently
0.3060000000	nature of
0.3060000000	aimed at
0.3060000000	care units
0.3060000000	document retrieval
0.3060000000	weight vectors
0.3060000000	saliency guided
0.3060000000	gaze tracking
0.3050000000	upper and lower bounds on
0.3050000000	at url https github.com
0.3050000000	in order to solve
0.3050000000	x ray computed tomography
0.3050000000	a more general class
0.3050000000	two orders of magnitude
0.3050000000	the bag of words
0.3050000000	using long short term
0.3050000000	the wall street journal
0.3050000000	processing and computer vision
0.3050000000	state and action spaces
0.3050000000	the generalization ability
0.3050000000	higher order logic
0.3050000000	a belief network
0.3050000000	blind compressed sensing
0.3050000000	a key challenge
0.3050000000	a ranked list
0.3050000000	the perturbed leader
0.3050000000	of deep reinforcement
0.3050000000	false positives per
0.3050000000	machine translation systems
0.3050000000	and multi task
0.3050000000	unsupervised and supervised
0.3050000000	the convolutional neural
0.3050000000	a cost function
0.3050000000	the optical flow
0.3050000000	in answer set
0.3050000000	a difficult task
0.3050000000	the rapid growth
0.3050000000	out cross validation
0.3050000000	a lower dimensional
0.3050000000	a large margin
0.3050000000	the manifold structure
0.3050000000	the fused lasso
0.3050000000	the ground truth
0.3050000000	features extracted from
0.3050000000	metric learning algorithm
0.3050000000	a test set
0.3050000000	the appearance of
0.3050000000	based multi task
0.3050000000	free viewing
0.3050000000	symmetric matrices
0.3050000000	adaptive stochastic
0.3050000000	base classifiers
0.3050000000	jointly learning
0.3050000000	relying on
0.3050000000	learned policy
0.3050000000	user comments
0.3050000000	suffers from
0.3050000000	media platforms
0.3050000000	p q
0.3050000000	psnr values
0.3050000000	gpu hardware
0.3050000000	compared with
0.3050000000	facial emotion
0.3050000000	convex sets
0.3050000000	p theta
0.3050000000	3d facial
0.3050000000	statistical regularities
0.3050000000	great significance
0.3050000000	mr imaging
0.3050000000	svm method
0.3050000000	dramatically improve
0.3050000000	the critic
0.3050000000	the standard
0.3050000000	precision rate
0.3050000000	the pattern
0.3050000000	the hand
0.3050000000	the perspective
0.3050000000	the wasserstein
0.3050000000	recommender system
0.3050000000	the block
0.3050000000	the disease
0.3050000000	feedback loop
0.3050000000	rate schedule
0.3050000000	account for
0.3050000000	speech transcription
0.3050000000	arbitrarily small
0.3050000000	human generated
0.3050000000	shot setting
0.3050000000	structural restrictions
0.3050000000	mathcal s
0.3050000000	edge weight
0.3050000000	chi 2
0.3050000000	insight into
0.3050000000	specific classes
0.3050000000	to english
0.3050000000	based cnn
0.3050000000	dialogue agent
0.3050000000	proximal stochastic
0.3050000000	laser range
0.3050000000	proximal operator
0.3050000000	tensor imaging
0.3050000000	translation mt
0.3050000000	power method
0.3050000000	computationally inefficient
0.3050000000	key innovation
0.3050000000	computationally hard
0.3050000000	belong to
0.3050000000	suffer from
0.3050000000	divergence measure
0.3050000000	belief states
0.3050000000	directional lstm
0.3050000000	impressive performance
0.3050000000	basic units
0.3050000000	with monte
0.3050000000	non native
0.3050000000	average reward
0.3050000000	object regions
0.3050000000	average dice
0.3050000000	label space
0.3050000000	dirichlet priors
0.3050000000	neighboring regions
0.3050000000	spiking activity
0.3050000000	classical approaches
0.3050000000	d 1
0.3050000000	a markov
0.3050000000	personalized ranking
0.3050000000	rejection rate
0.3040000000	the bag of words model
0.3040000000	the receiver operating characteristic curve
0.3040000000	a novel deep neural network
0.3040000000	synthetic and real datasets demonstrate
0.3040000000	for recognition of handwritten
0.3040000000	image retrieval based on
0.3040000000	on synthetic and real
0.3040000000	the task at hand
0.3040000000	the problem at hand
0.3040000000	a simple but effective
0.3040000000	propose to use
0.3040000000	class of probabilistic
0.3040000000	the maximum likelihood
0.3040000000	rate of o
0.3040000000	differential evolution de
0.3040000000	this paper describes
0.3040000000	the content of
0.3040000000	the internal states
0.3040000000	decision making problems
0.3040000000	from observational data
0.3040000000	a hot research
0.3040000000	highly sensitive to
0.3040000000	lidar point cloud
0.3040000000	experimental results showed
0.3040000000	cifar 100 and
0.3040000000	the proposed neural
0.3040000000	the arcade learning
0.3040000000	for named entity
0.3040000000	a framework based
0.3040000000	the diversity of
0.3040000000	for strongly convex
0.3040000000	the parameter space
0.3040000000	p norm minimization
0.3040000000	the current state
0.3040000000	the rademacher complexity
0.3040000000	the greedy algorithm
0.3040000000	larger scale
0.3040000000	desired properties
0.3040000000	mobile device
0.3040000000	processing speed
0.3040000000	sampling rate
0.3040000000	implementation details
0.3040000000	robot localization
0.3040000000	image descriptions
0.3040000000	p 2
0.3040000000	resolution algorithms
0.3040000000	3d cnn
0.3040000000	significantly boost
0.3040000000	visual explanations
0.3040000000	prediction errors
0.3040000000	evidence theory
0.3040000000	high efficiency
0.3040000000	visual dictionaries
0.3040000000	capable of
0.3040000000	significantly increase
0.3040000000	satisfactory performance
0.3040000000	domain transfer
0.3040000000	replaced by
0.3040000000	mu d
0.3040000000	versions of
0.3040000000	threshold values
0.3040000000	influenced by
0.3040000000	event camera
0.3040000000	traffic monitoring
0.3040000000	previous models
0.3040000000	hand labeled
0.3040000000	minimally supervised
0.3040000000	covariance structure
0.3040000000	ranging from
0.3040000000	expression data
0.3040000000	annotated dataset
0.3040000000	the facial
0.3040000000	the head
0.3040000000	the other
0.3040000000	the traffic
0.3040000000	the extension
0.3040000000	the systems
0.3040000000	the oracle
0.3040000000	the controller
0.3040000000	the patterns
0.3040000000	the svm
0.3040000000	inference method
0.3040000000	characterized by
0.3040000000	intermediate representations
0.3040000000	respect to
0.3040000000	learning settings
0.3040000000	long standing
0.3040000000	simultaneously learn
0.3040000000	feature embedding
0.3040000000	fashion mnist
0.3040000000	terms of
0.3040000000	semantic matching
0.3040000000	of conditional
0.3040000000	communication cost
0.3040000000	effective and
0.3040000000	recently achieved
0.3040000000	of graph
0.3040000000	human and
0.3040000000	mathcal c
0.3040000000	class probabilities
0.3040000000	significant margins
0.3040000000	depends on
0.3040000000	emotional content
0.3040000000	training corpus
0.3040000000	valuable insights
0.3040000000	adversarial net
0.3040000000	adversarial nets
0.3040000000	experiments on
0.3040000000	experiments reveal
0.3040000000	represented by
0.3040000000	numerical integration
0.3040000000	numerical methods
0.3040000000	approach produces
0.3040000000	leading to
0.3040000000	million words
0.3040000000	prone to
0.3040000000	viewed as
0.3040000000	error estimation
0.3040000000	common practice
0.3040000000	closed set
0.3040000000	logic dl
0.3040000000	a color
0.3040000000	retinal images
0.3040000000	multiple agents
0.3040000000	design decisions
0.3040000000	partially overlapping
0.3040000000	d 2
0.3040000000	d dimensional
0.3040000000	segmentation mask
0.3040000000	tight upper
0.3040000000	surrounding environment
0.3040000000	spatially variant
0.3030000000	a union of low dimensional
0.3030000000	computer vision and natural language
0.3030000000	stochastic multi armed bandit problem
0.3030000000	drop in replacement for
0.3030000000	competitive with state of
0.3030000000	low rank matrix from
0.3030000000	a very small number
0.3030000000	a relatively small number
0.3030000000	a simple and effective
0.3030000000	on real and synthetic
0.3030000000	the globally optimal
0.3030000000	a spiking neural
0.3030000000	nearest neighbour classifier
0.3030000000	sub linear regret
0.3030000000	to non euclidean
0.3030000000	at https youtu.be
0.3030000000	manually annotated data
0.3030000000	projected gradient descent
0.3030000000	an undirected graph
0.3030000000	graph convolutional networks
0.3030000000	finite sum optimization
0.3030000000	sqrt t log
0.3030000000	the existing methods
0.3030000000	rigid and non
0.3030000000	linear combinations of
0.3030000000	the implementation of
0.3030000000	generalized linear model
0.3030000000	perform better than
0.3030000000	the identification of
0.3030000000	the over fitting
0.3030000000	the recently introduced
0.3030000000	a well defined
0.3030000000	a well studied
0.3030000000	the l 2
0.3030000000	for cross modal
0.3030000000	a large set
0.3030000000	a large collection
0.3030000000	the building blocks
0.3030000000	the above mentioned
0.3030000000	web sources
0.3030000000	sampling method
0.3030000000	vector and
0.3030000000	resulting in
0.3030000000	past decade
0.3030000000	actor and
0.3030000000	rigorous mathematical
0.3030000000	much simpler
0.3030000000	theoretical analyses
0.3030000000	image of
0.3030000000	image from
0.3030000000	network design
0.3030000000	exponential growth
0.3030000000	leads to
0.3030000000	acoustic scene
0.3030000000	card images
0.3030000000	moving vehicle
0.3030000000	the dnn
0.3030000000	sensitivity and
0.3030000000	mixture component
0.3030000000	x 1
0.3030000000	the higher
0.3030000000	the execution
0.3030000000	the bounds
0.3030000000	x z
0.3030000000	the grammar
0.3030000000	the sets
0.3030000000	frequent sets
0.3030000000	linear and
0.3030000000	limit theorem
0.3030000000	hypothesis h
0.3030000000	binary strings
0.3030000000	pattern analysis
0.3030000000	storage requirements
0.3030000000	caused by
0.3030000000	laplacian matrices
0.3030000000	cardinality constraints
0.3030000000	imbalanced datasets
0.3030000000	severely limited
0.3030000000	lead to
0.3030000000	of web
0.3030000000	human fixations
0.3030000000	correspond to
0.3030000000	semantic parsers
0.3030000000	bound of
0.3030000000	adversarially trained
0.3030000000	kernel combination
0.3030000000	fair comparison
0.3030000000	protein interactions
0.3030000000	practically relevant
0.3030000000	relies on
0.3030000000	weighted nuclear
0.3030000000	optimality criteria
0.3030000000	type 2
0.3030000000	motivated by
0.3030000000	perform comparably
0.3030000000	multimedia retrieval
0.3030000000	challenges faced
0.3030000000	neural computation
0.3030000000	interactive visualization
0.3030000000	end and
0.3030000000	retinal layers
0.3030000000	a segmentation
0.3030000000	extensively used
0.3030000000	velocity field
0.3020000000	the success of deep learning
0.3020000000	the source and target domains
0.3020000000	the recurrent neural network rnn
0.3020000000	a novel recurrent neural
0.3020000000	in order to reduce
0.3020000000	the accuracy and robustness
0.3020000000	on simulated and real
0.3020000000	a novel deep learning
0.3020000000	the strengths and weaknesses
0.3020000000	human pose estimation in
0.3020000000	the user s preferences
0.3020000000	adaptive data analysis
0.3020000000	to shed light
0.3020000000	an increasing number
0.3020000000	learning rates for
0.3020000000	the data points
0.3020000000	model based optimization
0.3020000000	this paper introduces
0.3020000000	the solution to
0.3020000000	learning neural networks
0.3020000000	the cifar 10
0.3020000000	a stable model
0.3020000000	2007 and 2012
0.3020000000	transformation based learning
0.3020000000	information contained in
0.3020000000	many real world
0.3020000000	trade offs between
0.3020000000	sequential pattern mining
0.3020000000	a markov chain
0.3020000000	video action recognition
0.3020000000	a high degree
0.3020000000	the evolution of
0.3020000000	the mahalanobis distance
0.3020000000	the general case
0.3020000000	the wasserstein metric
0.3020000000	the false positive
0.3020000000	the recently proposed
0.3020000000	near neighbor search
0.3020000000	trace norm and
0.3020000000	a recently proposed
0.3020000000	high computational cost
0.3020000000	automatic target recognition
0.3020000000	a large class
0.3020000000	the original image
0.3020000000	the worst case
0.3020000000	a video sequence
0.3020000000	in near real
0.3020000000	the missing data
0.3020000000	semi supervised clustering
0.3020000000	multinomial logistic regression
0.3020000000	to further improve
0.3020000000	an important task
0.3020000000	bayesian deep learning
0.3020000000	model quality
0.3020000000	half spaces
0.3020000000	sub network
0.3020000000	samples collected
0.3020000000	exploration and
0.3020000000	sampling strategies
0.3020000000	visual images
0.3020000000	visual vocabulary
0.3020000000	orthogonal projection
0.3020000000	worse than
0.3020000000	research community
0.3020000000	histopathological images
0.3020000000	domain features
0.3020000000	item based
0.3020000000	mcmc algorithms
0.3020000000	smoothness assumption
0.3020000000	domain expertise
0.3020000000	generalizes well
0.3020000000	anatomical structures
0.3020000000	asynchronous advantage
0.3020000000	coincides with
0.3020000000	descriptive power
0.3020000000	sr methods
0.3020000000	the convolution
0.3020000000	the subspaces
0.3020000000	the bound
0.3020000000	theoretically guaranteed
0.3020000000	the detector
0.3020000000	the representations
0.3020000000	the term
0.3020000000	the leaf
0.3020000000	the quantum
0.3020000000	complete dictionary
0.3020000000	the player
0.3020000000	methods fail
0.3020000000	vgg face
0.3020000000	linear regressions
0.3020000000	achieve superior
0.3020000000	term frequency
0.3020000000	structure segmentation
0.3020000000	small adversarial
0.3020000000	converted into
0.3020000000	proof theoretic
0.3020000000	thermal and
0.3020000000	patterns such
0.3020000000	form games
0.3020000000	complex backgrounds
0.3020000000	of networks
0.3020000000	kernel k
0.3020000000	of items
0.3020000000	stereo pair
0.3020000000	to image
0.3020000000	counter examples
0.3020000000	mab problem
0.3020000000	latent parameters
0.3020000000	template based
0.3020000000	data gathered
0.3020000000	data of
0.3020000000	density estimate
0.3020000000	attracted much
0.3020000000	dynamic optimization
0.3020000000	sqrt log
0.3020000000	computational creativity
0.3020000000	correcting output
0.3020000000	access to
0.3020000000	random matrices
0.3020000000	non rigid
0.3020000000	temporal continuity
0.3020000000	entropy discrimination
0.3020000000	non monotonic
0.3020000000	manually crafted
0.3020000000	frac d
0.3020000000	rank of
0.3020000000	acceptance rate
0.3020000000	billions of
0.3020000000	suitable for
0.3020000000	amounts to
0.3020000000	variational models
0.3020000000	cross dataset
0.3020000000	sigma 1
0.3020000000	extensively investigated
0.3020000000	concave convex
0.3020000000	band limited
0.3010000000	the point of view of
0.3010000000	in many real world
0.3010000000	in order to achieve
0.3010000000	for many computer vision
0.3010000000	in order to obtain
0.3010000000	both real and synthetic
0.3010000000	in many computer vision
0.3010000000	a non convex
0.3010000000	topological data analysis
0.3010000000	giving rise to
0.3010000000	an optimization algorithm
0.3010000000	a and b
0.3010000000	in many applications
0.3010000000	an open source
0.3010000000	the 3d pose
0.3010000000	the task of
0.3010000000	of deep neural
0.3010000000	linear inverse problems
0.3010000000	matrix completion and
0.3010000000	lifted probabilistic inference
0.3010000000	the likelihood of
0.3010000000	a knowledge graph
0.3010000000	a two step
0.3010000000	image classification and
0.3010000000	maximum entropy model
0.3010000000	to better understand
0.3010000000	the influence of
0.3010000000	the de facto
0.3010000000	a saliency map
0.3010000000	with high probability
0.3010000000	multi objective problems
0.3010000000	new york city
0.3010000000	learned latent
0.3010000000	trained from
0.3010000000	word to
0.3010000000	concerned with
0.3010000000	starting from
0.3010000000	single person
0.3010000000	manifold based
0.3010000000	source codes
0.3010000000	captured by
0.3010000000	image and
0.3010000000	convex regularizer
0.3010000000	event calculus
0.3010000000	view image
0.3010000000	aims at
0.3010000000	determined by
0.3010000000	spatial attention
0.3010000000	successfully used
0.3010000000	results indicate
0.3010000000	research and
0.3010000000	for domain
0.3010000000	written text
0.3010000000	covariance operator
0.3010000000	serves as
0.3010000000	matrix valued
0.3010000000	the edges
0.3010000000	the lexicon
0.3010000000	the schatten
0.3010000000	the stage
0.3010000000	the registration
0.3010000000	the experts
0.3010000000	the regions
0.3010000000	the view
0.3010000000	sonar image
0.3010000000	m 2
0.3010000000	equipped with
0.3010000000	cost estimation
0.3010000000	standard graph
0.3010000000	embedding model
0.3010000000	interpreted as
0.3010000000	binary representation
0.3010000000	relied on
0.3010000000	information leakage
0.3010000000	incorporated into
0.3010000000	augmentation schemes
0.3010000000	benefit from
0.3010000000	of swarm
0.3010000000	of robustness
0.3010000000	of probability
0.3010000000	of latent
0.3010000000	of hyperspectral
0.3010000000	there exists
0.3010000000	topic distributions
0.3010000000	formulated as
0.3010000000	based filter
0.3010000000	data to
0.3010000000	differences between
0.3010000000	coming from
0.3010000000	unit gpu
0.3010000000	current policy
0.3010000000	similarity preserving
0.3010000000	extremely difficult
0.3010000000	interested in
0.3010000000	random neural
0.3010000000	probabilistic knowledge
0.3010000000	neural text
0.3010000000	noisy environments
0.3010000000	amenable to
0.3010000000	a spectral
0.3010000000	loss and
0.3010000000	devoted to
0.3000000000	compared to state of
0.3000000000	the singular value decomposition
0.3000000000	the design and implementation
0.3000000000	the laplace beltrami operator
0.3000000000	root mean squared error
0.3000000000	the computer vision community
0.3000000000	a novel convolutional neural
0.3000000000	a branch and bound
0.3000000000	an in depth analysis
0.3000000000	a new neural network
0.3000000000	a non linear
0.3000000000	under covariate shift
0.3000000000	a social network
0.3000000000	a small subset
0.3000000000	a gaussian distribution
0.3000000000	the predictive power
0.3000000000	the 0 1
0.3000000000	machine translation model
0.3000000000	an ill posed
0.3000000000	nonlinear dimensionality reduction
0.3000000000	a necessary condition
0.3000000000	a recently introduced
0.3000000000	a large corpus
0.3000000000	a message passing
0.3000000000	detection and recognition
0.3000000000	low rank minimization
0.3000000000	a multi agent
0.3000000000	semeval 2016 task
0.3000000000	the fourier domain
0.3000000000	the art accuracy
0.3000000000	greater than
0.3000000000	directed graph
0.3000000000	past observations
0.3000000000	this thesis
0.3000000000	one shot
0.3000000000	trained on
0.3000000000	equivalent to
0.3000000000	public safety
0.3000000000	two dimensional
0.3000000000	visual pathway
0.3000000000	estimated depth
0.3000000000	hand detection
0.3000000000	for event
0.3000000000	shapley value
0.3000000000	k th
0.3000000000	mu 2
0.3000000000	for belief
0.3000000000	for deep
0.3000000000	each iteration
0.3000000000	sketch recognition
0.3000000000	parametric methods
0.3000000000	the secret
0.3000000000	the shelf
0.3000000000	the points
0.3000000000	the basis
0.3000000000	the arms
0.3000000000	group theory
0.3000000000	the color
0.3000000000	the reinforcement
0.3000000000	not necessarily
0.3000000000	suffering from
0.3000000000	block matching
0.3000000000	proposed dataset
0.3000000000	local patch
0.3000000000	achieve good
0.3000000000	sampled independently
0.3000000000	inverse compositional
0.3000000000	provided by
0.3000000000	representation of
0.3000000000	computer chess
0.3000000000	general loss
0.3000000000	kernel svm
0.3000000000	ising model
0.3000000000	comparable to
0.3000000000	world model
0.3000000000	dealt with
0.3000000000	data center
0.3000000000	to date
0.3000000000	to ensure
0.3000000000	while maintaining
0.3000000000	compression methods
0.3000000000	dynamic scene
0.3000000000	unit resolution
0.3000000000	margin learning
0.3000000000	physical phenomena
0.3000000000	patient specific
0.3000000000	experiments show
0.3000000000	aggregation operators
0.3000000000	handwritten word
0.3000000000	increasingly popular
0.3000000000	obtained from
0.3000000000	achieved by
0.3000000000	increasingly used
0.3000000000	connections between
0.3000000000	induced by
0.3000000000	analysis of
0.3000000000	reduced precision
0.3000000000	variational distribution
0.3000000000	maximum weight
0.3000000000	distributed constraint
0.3000000000	a saliency
0.3000000000	cross validated
0.3000000000	a gaussian
0.2990000000	a deep neural network dnn
0.2990000000	the art object detection
0.2990000000	for human pose estimation
0.2990000000	a relative improvement
0.2990000000	an empirical analysis
0.2990000000	a low cost
0.2990000000	a two level
0.2990000000	of time series
0.2990000000	levels of granularity
0.2990000000	the beginning of
0.2990000000	of 3d human
0.2990000000	the face of
0.2990000000	the robustness of
0.2990000000	an over complete
0.2990000000	the global optimum
0.2990000000	deep convolutional features
0.2990000000	o n log
0.2990000000	at multiple scales
0.2990000000	benchmark datasets show
0.2990000000	correlation structure
0.2990000000	defined by
0.2990000000	answer pair
0.2990000000	adaptive sampling
0.2990000000	agent systems
0.2990000000	sentence length
0.2990000000	this issue
0.2990000000	measurement matrix
0.2990000000	tree width
0.2990000000	root cause
0.2990000000	into account
0.2990000000	consequence relations
0.2990000000	susceptible to
0.2990000000	modeling techniques
0.2990000000	previous algorithms
0.2990000000	the arabic
0.2990000000	the main
0.2990000000	situation assessment
0.2990000000	wirtinger s
0.2990000000	posterior probability
0.2990000000	the revision
0.2990000000	the choice
0.2990000000	the nmt
0.2990000000	the teacher
0.2990000000	the result
0.2990000000	the parts
0.2990000000	the separation
0.2990000000	the wild
0.2990000000	online discussions
0.2990000000	the pac
0.2990000000	l1 minimization
0.2990000000	lexical items
0.2990000000	causal ordering
0.2990000000	structure from
0.2990000000	small datasets
0.2990000000	crafted features
0.2990000000	distinguish between
0.2990000000	effective dimension
0.2990000000	cnn methods
0.2990000000	of skin
0.2990000000	of reinforcement
0.2990000000	lstm cells
0.2990000000	comprised of
0.2990000000	broad applicability
0.2990000000	data visualization
0.2990000000	variable models
0.2990000000	to understand
0.2990000000	to overcome
0.2990000000	to reduce
0.2990000000	to improve
0.2990000000	while retaining
0.2990000000	to detect
0.2990000000	to extract
0.2990000000	to perform
0.2990000000	to address
0.2990000000	to achieve
0.2990000000	to train
0.2990000000	to predict
0.2990000000	to generate
0.2990000000	to classify
0.2990000000	to identify
0.2990000000	to estimate
0.2990000000	to obtain
0.2990000000	to determine
0.2990000000	to optimize
0.2990000000	arising from
0.2990000000	dynamic networks
0.2990000000	lr images
0.2990000000	relations between
0.2990000000	related applications
0.2990000000	optimal stopping
0.2990000000	by introducing
0.2990000000	between language
0.2990000000	emotion detection
0.2990000000	collective classification
0.2990000000	with importance
0.2990000000	and face
0.2990000000	solid theoretical
0.2990000000	body joint
0.2990000000	in practice
0.2990000000	run time
0.2990000000	logical reasoning
0.2990000000	saliency estimation
0.2990000000	organizing maps
0.2990000000	a group
0.2990000000	a simple
0.2990000000	concave optimization
0.2980000000	for large scale image retrieval
0.2980000000	for facial landmark detection
0.2980000000	in order to improve
0.2980000000	the design and analysis
0.2980000000	recognition in still images
0.2980000000	necessary and sufficient conditions
0.2980000000	on two real world
0.2980000000	perform well on
0.2980000000	the 20th century
0.2980000000	used to train
0.2980000000	application of deep
0.2980000000	this paper investigates
0.2980000000	a directed acyclic
0.2980000000	in many cases
0.2980000000	in 0 1
0.2980000000	mnist cifar 10
0.2980000000	in mean average
0.2980000000	the neighborhood of
0.2980000000	a general purpose
0.2980000000	in most cases
0.2980000000	the search for
0.2980000000	widely used in
0.2980000000	the most popular
0.2980000000	in computer vision
0.2980000000	training and test
0.2980000000	for visual tracking
0.2980000000	wide adoption
0.2980000000	experimental comparisons
0.2980000000	layer and
0.2980000000	knowledge and
0.2980000000	word by
0.2980000000	subsequent frames
0.2980000000	user authentication
0.2980000000	model performs
0.2980000000	vector machines
0.2980000000	atlas segmentation
0.2980000000	registration algorithm
0.2980000000	competitive ratio
0.2980000000	high noise
0.2980000000	visual concept
0.2980000000	initially unknown
0.2980000000	textual features
0.2980000000	significantly reducing
0.2980000000	image alignment
0.2980000000	practical application
0.2980000000	image collections
0.2980000000	k log
0.2980000000	for salient
0.2980000000	for dictionary
0.2980000000	spherical gaussian
0.2980000000	areas including
0.2980000000	parametric model
0.2980000000	inter modal
0.2980000000	the collaborative
0.2980000000	the instance
0.2980000000	published results
0.2980000000	visualization techniques
0.2980000000	the unification
0.2980000000	the application
0.2980000000	the margin
0.2980000000	ease of
0.2980000000	the speaker
0.2980000000	the building
0.2980000000	the samples
0.2980000000	the type
0.2980000000	the mini
0.2980000000	the diffusion
0.2980000000	pixelwise classification
0.2980000000	structure preserving
0.2980000000	benchmark instances
0.2980000000	developed to
0.2980000000	path distance
0.2980000000	learning strategies
0.2980000000	binary classifier
0.2980000000	movement patterns
0.2980000000	human communication
0.2980000000	of network
0.2980000000	learn to
0.2980000000	achieves high
0.2980000000	repeatedly solving
0.2980000000	of state
0.2980000000	of kernel
0.2980000000	human understandable
0.2980000000	field theory
0.2980000000	shape information
0.2980000000	spectral images
0.2980000000	data instances
0.2980000000	to compute
0.2980000000	efficiently solve
0.2980000000	automatically identify
0.2980000000	real numbers
0.2980000000	class and
0.2980000000	dynamic textures
0.2980000000	computational tractability
0.2980000000	cognitive systems
0.2980000000	multi fidelity
0.2980000000	ensemble method
0.2980000000	performs well
0.2980000000	images depicting
0.2980000000	smooth optimization
0.2980000000	similar to
0.2980000000	synthetic examples
0.2980000000	random vectors
0.2980000000	sequential pattern
0.2980000000	and question
0.2980000000	interest rois
0.2980000000	temporal resolution
0.2980000000	a vector
0.2980000000	distributed algorithms
0.2980000000	quantization errors
0.2980000000	classical methods
0.2980000000	segmentation algorithms
0.2980000000	a utility
0.2980000000	in section
0.2980000000	in speech
0.2980000000	psychological state
0.2970000000	for salient object detection
0.2970000000	a low dimensional space
0.2970000000	on several real world
0.2970000000	an important and challenging
0.2970000000	class of loss functions
0.2970000000	problem with time windows
0.2970000000	human activity recognition using
0.2970000000	ell 1 norm and
0.2970000000	comparable to state of
0.2970000000	a coarse to fine
0.2970000000	mathbb r p
0.2970000000	the singular values
0.2970000000	the university of
0.2970000000	the output layer
0.2970000000	sentences and documents
0.2970000000	this paper aims
0.2970000000	the 3d shape
0.2970000000	a novel deep
0.2970000000	weakly supervised localization
0.2970000000	error rate of
0.2970000000	the application of
0.2970000000	canny edge detection
0.2970000000	does not necessarily
0.2970000000	the clustering problem
0.2970000000	the new york
0.2970000000	the united states
0.2970000000	larger than
0.2970000000	dnns trained
0.2970000000	this article
0.2970000000	algorithm performance
0.2970000000	gram matrices
0.2970000000	depth estimates
0.2970000000	immune system
0.2970000000	differs from
0.2970000000	cosine distance
0.2970000000	logarithmic factor
0.2970000000	solution path
0.2970000000	phase recovery
0.2970000000	p omega
0.2970000000	3d mesh
0.2970000000	k 2
0.2970000000	hand object
0.2970000000	bayes theorem
0.2970000000	policy and
0.2970000000	for saliency
0.2970000000	for sentiment
0.2970000000	for density
0.2970000000	neighbor classifier
0.2970000000	generalized zero
0.2970000000	minimax game
0.2970000000	travel cost
0.2970000000	the layout
0.2970000000	parametric speech
0.2970000000	confidence sets
0.2970000000	panchromatic image
0.2970000000	the resulting
0.2970000000	the fractal
0.2970000000	the rules
0.2970000000	the blur
0.2970000000	the membership
0.2970000000	the virtual
0.2970000000	the items
0.2970000000	the student
0.2970000000	the tracking
0.2970000000	the distributed
0.2970000000	the 3
0.2970000000	the lstm
0.2970000000	the surrogate
0.2970000000	the texture
0.2970000000	the rule
0.2970000000	the properties
0.2970000000	the filter
0.2970000000	the metric
0.2970000000	the classifiers
0.2970000000	discriminative correlation
0.2970000000	filter responses
0.2970000000	online handwriting
0.2970000000	local minimizer
0.2970000000	balance exploration
0.2970000000	weak labels
0.2970000000	attack detection
0.2970000000	pca algorithms
0.2970000000	dense correspondence
0.2970000000	means algorithm
0.2970000000	of fuzzy
0.2970000000	importance weights
0.2970000000	human languages
0.2970000000	of clustering
0.2970000000	largest public
0.2970000000	self driving
0.2970000000	topology preserving
0.2970000000	to convolutional
0.2970000000	to mathcal
0.2970000000	to create
0.2970000000	to solve
0.2970000000	smaller than
0.2970000000	viewpoint variations
0.2970000000	brief introduction
0.2970000000	attracted great
0.2970000000	risk estimator
0.2970000000	similarity networks
0.2970000000	optimality criterion
0.2970000000	n 1
0.2970000000	n 3
0.2970000000	classification rules
0.2970000000	relative likelihood
0.2970000000	hierarchical prior
0.2970000000	disparity estimation
0.2970000000	rank tensors
0.2970000000	1 epsilon
0.2970000000	a tensor
0.2970000000	a priori
0.2970000000	a term
0.2970000000	in logic
0.2970000000	a machine
0.2970000000	1 1
0.2970000000	a support
0.2970000000	in answer
0.2970000000	a privacy
0.2970000000	texts written
0.2970000000	conceptual space
0.2970000000	safe policy
0.2960000000	the effectiveness and efficiency
0.2960000000	the presence or absence
0.2960000000	a simple and efficient
0.2960000000	a simple yet effective
0.2960000000	achieved great success in
0.2960000000	an online learning algorithm
0.2960000000	surrogate loss functions
0.2960000000	a system based
0.2960000000	translation invariance of
0.2960000000	sequential decision making
0.2960000000	a deep learning
0.2960000000	a post processing
0.2960000000	a wealth of
0.2960000000	the optimal policy
0.2960000000	with relu activations
0.2960000000	the theoretical analysis
0.2960000000	a crucial step
0.2960000000	long term temporal
0.2960000000	this end
0.2960000000	kripke models
0.2960000000	tested on
0.2960000000	algorithm of
0.2960000000	tree boosting
0.2960000000	both synthetic
0.2960000000	user inputs
0.2960000000	user level
0.2960000000	sentence aligned
0.2960000000	measurement error
0.2960000000	gained great
0.2960000000	performance bounds
0.2960000000	image domain
0.2960000000	semi bandit
0.2960000000	introduce two
0.2960000000	experimentally validated
0.2960000000	geometric distortion
0.2960000000	orientation scores
0.2960000000	underlying low
0.2960000000	deep linear
0.2960000000	hard problems
0.2960000000	artificial evolution
0.2960000000	on weakly
0.2960000000	efficient solutions
0.2960000000	each view
0.2960000000	for transfer
0.2960000000	for evaluation
0.2960000000	line of
0.2960000000	for binary
0.2960000000	pet image
0.2960000000	message length
0.2960000000	the lambek
0.2960000000	the immune
0.2960000000	the estimator
0.2960000000	the convex
0.2960000000	the reason
0.2960000000	the ai
0.2960000000	the path
0.2960000000	the cluster
0.2960000000	the tensor
0.2960000000	the english
0.2960000000	the energy
0.2960000000	the identification
0.2960000000	the matching
0.2960000000	the fact
0.2960000000	the rnn
0.2960000000	the power
0.2960000000	the open
0.2960000000	the map
0.2960000000	the adversarial
0.2960000000	the ontology
0.2960000000	the structured
0.2960000000	the part
0.2960000000	the digital
0.2960000000	the junction
0.2960000000	the turing
0.2960000000	process monitoring
0.2960000000	lexical database
0.2960000000	positive rate
0.2960000000	learning and
0.2960000000	article discusses
0.2960000000	speech utterances
0.2960000000	learning environment
0.2960000000	viewing conditions
0.2960000000	cnn to
0.2960000000	matching cost
0.2960000000	action video
0.2960000000	calibration method
0.2960000000	sensing imagery
0.2960000000	motion model
0.2960000000	of quantum
0.2960000000	of object
0.2960000000	of artificial
0.2960000000	of causal
0.2960000000	of ai
0.2960000000	learn policies
0.2960000000	motion based
0.2960000000	human model
0.2960000000	author topic
0.2960000000	lstm rnns
0.2960000000	student t
0.2960000000	sensing actions
0.2960000000	utility models
0.2960000000	french translation
0.2960000000	variable ordering
0.2960000000	conditioned on
0.2960000000	largest dataset
0.2960000000	to collaborative
0.2960000000	based cost
0.2960000000	robust loss
0.2960000000	to tackle
0.2960000000	handle large
0.2960000000	crowd behavior
0.2960000000	composite likelihood
0.2960000000	task clustering
0.2960000000	adversarial example
0.2960000000	cognitive architectures
0.2960000000	time bayesian
0.2960000000	concept analysis
0.2960000000	matlab implementation
0.2960000000	aggregation operator
0.2960000000	random instances
0.2960000000	arise naturally
0.2960000000	abstraction levels
0.2960000000	temporal signals
0.2960000000	intrinsic dimensionality
0.2960000000	challenges and
0.2960000000	scene model
0.2960000000	security games
0.2960000000	biologically relevant
0.2960000000	and scalability
0.2960000000	fused images
0.2960000000	v2 dataset
0.2960000000	carefully constructed
0.2960000000	explicitly model
0.2960000000	dependence measures
0.2960000000	times n
0.2960000000	under mild
0.2960000000	decomposition method
0.2960000000	in expert
0.2960000000	a single
0.2960000000	in decision
0.2960000000	a siamese
0.2960000000	lower error
0.2960000000	unmixing problem
0.2950000000	success of deep neural networks
0.2950000000	sparse inverse covariance matrix
0.2950000000	the resulting optimization problem
0.2950000000	such as object recognition
0.2950000000	a novel neural network
0.2950000000	the fisher information matrix
0.2950000000	recurrent convolutional neural network
0.2950000000	such as principal component
0.2950000000	the pros and cons
0.2950000000	for unsupervised domain adaptation
0.2950000000	the spatial and temporal
0.2950000000	the number of data
0.2950000000	membership latent dirichlet allocation
0.2950000000	the signal to noise
0.2950000000	both labeled and unlabeled
0.2950000000	a proof of concept
0.2950000000	gaussian process model
0.2950000000	a recurrent neural
0.2950000000	a sliding window
0.2950000000	group lasso penalty
0.2950000000	the data set
0.2950000000	based solely on
0.2950000000	object detection methods
0.2950000000	based rough sets
0.2950000000	approximate message passing
0.2950000000	region policy optimization
0.2950000000	the main idea
0.2950000000	a sequence of
0.2950000000	adversarial imitation learning
0.2950000000	a novel loss
0.2950000000	the objective of
0.2950000000	supervised object detection
0.2950000000	linear activation function
0.2950000000	decision tree algorithms
0.2950000000	multi label image
0.2950000000	a tensor product
0.2950000000	a two stage
0.2950000000	variational lower bound
0.2950000000	a two layer
0.2950000000	the distributions of
0.2950000000	the results obtained
0.2950000000	image classification problems
0.2950000000	the false alarm
0.2950000000	online gradient descent
0.2950000000	consists of two
0.2950000000	domain adaptation methods
0.2950000000	class classification problems
0.2950000000	a great deal
0.2950000000	depth estimation methods
0.2950000000	multi agent learning
0.2950000000	the consistency of
0.2950000000	document image classification
0.2950000000	the calculation of
0.2950000000	learning word representations
0.2950000000	data collected from
0.2950000000	neural network algorithm
0.2950000000	based active learning
0.2950000000	stochastic convex optimization
0.2950000000	semantically annotated
0.2950000000	direct regression
0.2950000000	web documents
0.2950000000	past decades
0.2950000000	model space
0.2950000000	this network
0.2950000000	model end
0.2950000000	agent s
0.2950000000	learned feature
0.2950000000	agent populations
0.2950000000	agent architecture
0.2950000000	word adjacency
0.2950000000	bandit learning
0.2950000000	extrinsic evaluation
0.2950000000	energy functional
0.2950000000	nonparametric density
0.2950000000	starting points
0.2950000000	social relations
0.2950000000	grained image
0.2950000000	scale contextual
0.2950000000	scale scene
0.2950000000	derive bounds
0.2950000000	scale studies
0.2950000000	subject to
0.2950000000	convex methods
0.2950000000	source distribution
0.2950000000	distribution regression
0.2950000000	image forensics
0.2950000000	single video
0.2950000000	question representation
0.2950000000	comprehensive overview
0.2950000000	discrete space
0.2950000000	single solution
0.2950000000	image volumes
0.2950000000	convex cost
0.2950000000	source target
0.2950000000	correct answers
0.2950000000	resolution algorithm
0.2950000000	dimensional random
0.2950000000	dimensional semantic
0.2950000000	facial recognition
0.2950000000	neighbor matching
0.2950000000	acoustic events
0.2950000000	view reconstruction
0.2950000000	view feature
0.2950000000	2d landmarks
0.2950000000	hybrid feature
0.2950000000	k 1
0.2950000000	order interaction
0.2950000000	acoustic modelling
0.2950000000	many problems
0.2950000000	results show
0.2950000000	sharing systems
0.2950000000	deep lstm
0.2950000000	weights learned
0.2950000000	for convex
0.2950000000	product graph
0.2950000000	view depth
0.2950000000	occlusion aware
0.2950000000	broader range
0.2950000000	reliably detect
0.2950000000	surpassing human
0.2950000000	moving cameras
0.2950000000	photographic images
0.2950000000	mixture distribution
0.2950000000	signal reconstruction
0.2950000000	the agent
0.2950000000	potentially infinite
0.2950000000	the closed
0.2950000000	the hyperspectral
0.2950000000	the sampling
0.2950000000	the label
0.2950000000	the 2
0.2950000000	the recurrent
0.2950000000	the vehicle
0.2950000000	the event
0.2950000000	the algorithms
0.2950000000	the answer
0.2950000000	inference networks
0.2950000000	the cnn
0.2950000000	the subspace
0.2950000000	the robustness
0.2950000000	annotation framework
0.2950000000	detecting human
0.2950000000	l2 distance
0.2950000000	the experimental
0.2950000000	the ensemble
0.2950000000	the ranking
0.2950000000	the document
0.2950000000	the lasso
0.2950000000	the principles
0.2950000000	the signal
0.2950000000	the constraints
0.2950000000	the volume
0.2950000000	symbolic models
0.2950000000	online robust
0.2950000000	filter size
0.2950000000	the market
0.2950000000	the anomaly
0.2950000000	constrained linear
0.2950000000	linear representation
0.2950000000	linear contextual
0.2950000000	information system
0.2950000000	urban environments
0.2950000000	pooling methods
0.2950000000	standard technique
0.2950000000	term structure
0.2950000000	mammogram classification
0.2950000000	learning vector
0.2950000000	learning performance
0.2950000000	proposed semi
0.2950000000	speech detection
0.2950000000	using spatio
0.2950000000	attack planning
0.2950000000	proof nets
0.2950000000	motor control
0.2950000000	dense trajectories
0.2950000000	stems from
0.2950000000	of context
0.2950000000	relevant feature
0.2950000000	sensing matrix
0.2950000000	ii error
0.2950000000	interacts with
0.2950000000	apriori algorithm
0.2950000000	semantic object
0.2950000000	semantic word
0.2950000000	state networks
0.2950000000	fast model
0.2950000000	level segmentation
0.2950000000	search cost
0.2950000000	of data
0.2950000000	learn object
0.2950000000	level supervision
0.2950000000	of residual
0.2950000000	of temporal
0.2950000000	connection between
0.2950000000	of learning
0.2950000000	level recognition
0.2950000000	human human
0.2950000000	kernel feature
0.2950000000	spectral norm
0.2950000000	neighbour search
0.2950000000	squares estimation
0.2950000000	noise data
0.2950000000	conversation model
0.2950000000	presented and
0.2950000000	specific semantic
0.2950000000	based dialog
0.2950000000	variable sized
0.2950000000	to select
0.2950000000	based recommendation
0.2950000000	unified deep
0.2950000000	pairwise correlations
0.2950000000	efficiently computable
0.2950000000	based activity
0.2950000000	input weights
0.2950000000	consistent model
0.2950000000	dynamic logic
0.2950000000	space data
0.2950000000	space search
0.2950000000	conversational agent
0.2950000000	computational savings
0.2950000000	exact learning
0.2950000000	demonstrated impressive
0.2950000000	ladder network
0.2950000000	weighted voting
0.2950000000	component pursuit
0.2950000000	target sequence
0.2950000000	conflict free
0.2950000000	training image
0.2950000000	performs similarly
0.2950000000	unstructured environments
0.2950000000	graph partition
0.2950000000	core set
0.2950000000	images mri
0.2950000000	content generation
0.2950000000	optimal scaling
0.2950000000	theoretic limits
0.2950000000	soft label
0.2950000000	decay rate
0.2950000000	text matching
0.2950000000	neural approach
0.2950000000	text samples
0.2950000000	video question
0.2950000000	video quality
0.2950000000	gaussian variables
0.2950000000	common feature
0.2950000000	scene context
0.2950000000	rank component
0.2950000000	a predictive
0.2950000000	multiple networks
0.2950000000	update equations
0.2950000000	times speedup
0.2950000000	distributed adaptive
0.2950000000	whole tumor
0.2950000000	analysis rpca
0.2950000000	maximum satisfiability
0.2950000000	a proxy
0.2950000000	analysis tasks
0.2950000000	analysis pca
0.2950000000	detection networks
0.2950000000	videos recorded
0.2950000000	generalization abilities
0.2950000000	preference data
0.2950000000	forecasting models
0.2950000000	monocular camera
0.2950000000	reweighted least
0.2940000000	the number of training samples
0.2940000000	for visual object tracking
0.2940000000	semi supervised learning with
0.2940000000	an artificial neural network
0.2940000000	a deep recurrent neural
0.2940000000	the second one
0.2940000000	not well understood
0.2940000000	an on line
0.2940000000	to scale to
0.2940000000	high dimensional nonlinear
0.2940000000	models with latent
0.2940000000	a so called
0.2940000000	a vast number
0.2940000000	the present study
0.2940000000	super resolution reconstruction
0.2940000000	constrained optimization problems
0.2940000000	the interpretation of
0.2940000000	supervised topic models
0.2940000000	face alignment methods
0.2940000000	for abstract argumentation
0.2940000000	sp theory of
0.2940000000	the occurrence of
0.2940000000	for approximate inference
0.2940000000	images in terms
0.2940000000	a large dataset
0.2940000000	fine grained details
0.2940000000	the mixture model
0.2940000000	the multi label
0.2940000000	the choice of
0.2940000000	an important problem
0.2940000000	dictionary learning problem
0.2940000000	this position paper
0.2940000000	pre determined
0.2940000000	algorithm finds
0.2940000000	both types
0.2940000000	measurement noise
0.2940000000	textual visual
0.2940000000	network metrics
0.2940000000	point sources
0.2940000000	corrupted by
0.2940000000	accurate and
0.2940000000	minimum variance
0.2940000000	scattering network
0.2940000000	colour image
0.2940000000	reliance on
0.2940000000	the noise
0.2940000000	the terms
0.2940000000	the squared
0.2940000000	the activation
0.2940000000	the causal
0.2940000000	the naive
0.2940000000	the logic
0.2940000000	the query
0.2940000000	the sparse
0.2940000000	the tree
0.2940000000	the variational
0.2940000000	the cloud
0.2940000000	the policy
0.2940000000	x rays
0.2940000000	the clustering
0.2940000000	the networks
0.2940000000	the action
0.2940000000	the translation
0.2940000000	the runtime
0.2940000000	the edge
0.2940000000	the sentence
0.2940000000	the deep
0.2940000000	the convolutional
0.2940000000	the function
0.2940000000	the intra
0.2940000000	the fuzzy
0.2940000000	the group
0.2940000000	the social
0.2940000000	the variables
0.2940000000	the belief
0.2940000000	the methods
0.2940000000	the classes
0.2940000000	group based
0.2940000000	binary valued
0.2940000000	of language
0.2940000000	decision procedures
0.2940000000	of speech
0.2940000000	more precisely
0.2940000000	of social
0.2940000000	achieves better
0.2940000000	of distributed
0.2940000000	of mathcal
0.2940000000	of decision
0.2940000000	side information
0.2940000000	sensor modalities
0.2940000000	received much
0.2940000000	an algorithmic
0.2940000000	data hungry
0.2940000000	automatically adjust
0.2940000000	to avoid
0.2940000000	to recognize
0.2940000000	to maximize
0.2940000000	to large
0.2940000000	streaming videos
0.2940000000	target video
0.2940000000	temporal correlations
0.2940000000	and efficiency
0.2940000000	n 2
0.2940000000	l 2
0.2940000000	video level
0.2940000000	end goal
0.2940000000	rank factorization
0.2940000000	distributed stochastic
0.2940000000	a causal
0.2940000000	a regularization
0.2940000000	a face
0.2940000000	a mobile
0.2940000000	without requiring
0.2940000000	a suite
0.2940000000	a quantum
0.2940000000	learns to
0.2930000000	both labeled and unlabeled data
0.2930000000	the bag of visual words
0.2930000000	end to end learning of
0.2930000000	the last few years
0.2930000000	the simple genetic algorithm
0.2930000000	for facial expression recognition
0.2930000000	in order to provide
0.2930000000	the curse of dimensionality
0.2930000000	aided diagnosis cad system
0.2930000000	answer set semantics of
0.2930000000	the class labels
0.2930000000	the ability of
0.2930000000	the primal dual
0.2930000000	an answer set
0.2930000000	the attention based
0.2930000000	the first stage
0.2930000000	object pose estimation
0.2930000000	remote sensing scene
0.2930000000	a wide class
0.2930000000	the recently developed
0.2930000000	the effect of
0.2930000000	the hessian matrix
0.2930000000	a feedforward neural
0.2930000000	low rank structure
0.2930000000	dynamic range hdr
0.2930000000	the distance metric
0.2930000000	for object detection
0.2930000000	highly imbalanced
0.2930000000	unseen objects
0.2930000000	adaptive dictionary
0.2930000000	web mining
0.2930000000	exploratory analysis
0.2930000000	screening rules
0.2930000000	robot control
0.2930000000	arabic english
0.2930000000	comparative evaluations
0.2930000000	negligible loss
0.2930000000	language input
0.2930000000	two main
0.2930000000	visual emotion
0.2930000000	correctly classify
0.2930000000	dimensional optimization
0.2930000000	wavelet transformation
0.2930000000	diagnostic tool
0.2930000000	modal feature
0.2930000000	view invariant
0.2930000000	sources of
0.2930000000	vision and
0.2930000000	widely employed
0.2930000000	for speech
0.2930000000	for high
0.2930000000	covariance descriptors
0.2930000000	pareto set
0.2930000000	minimax risk
0.2930000000	the contour
0.2930000000	sharp contrast
0.2930000000	the information
0.2930000000	the graph
0.2930000000	the users
0.2930000000	symbolic reasoning
0.2930000000	the robot
0.2930000000	the dictionary
0.2930000000	the memory
0.2930000000	attentive recurrent
0.2930000000	the preferences
0.2930000000	the text
0.2930000000	the video
0.2930000000	the object
0.2930000000	the entire
0.2930000000	the regression
0.2930000000	the sensor
0.2930000000	the final
0.2930000000	the heart
0.2930000000	the agents
0.2930000000	the objects
0.2930000000	the logistic
0.2930000000	the images
0.2930000000	the segmentation
0.2930000000	the discrepancy
0.2930000000	the sequence
0.2930000000	the geometry
0.2930000000	the models
0.2930000000	the method
0.2930000000	the base
0.2930000000	the necessity
0.2930000000	the usage
0.2930000000	the underlying
0.2930000000	the word
0.2930000000	the matrix
0.2930000000	the features
0.2930000000	the 3d
0.2930000000	the kernel
0.2930000000	the face
0.2930000000	the manifold
0.2930000000	uncertainty measure
0.2930000000	feature variables
0.2930000000	local descriptor
0.2930000000	path consistency
0.2930000000	speech driven
0.2930000000	motor learning
0.2930000000	celeba dataset
0.2930000000	scoring systems
0.2930000000	of image
0.2930000000	of knowledge
0.2930000000	pyramid matching
0.2930000000	of evolutionary
0.2930000000	more important
0.2930000000	an optimal
0.2930000000	paradigm shift
0.2930000000	parsing strategies
0.2930000000	printed text
0.2930000000	an explanation
0.2930000000	to capture
0.2930000000	to minimize
0.2930000000	to facilitate
0.2930000000	to construct
0.2930000000	an effective
0.2930000000	to handle
0.2930000000	to assess
0.2930000000	to produce
0.2930000000	pose estimator
0.2930000000	to infer
0.2930000000	to build
0.2930000000	to enhance
0.2930000000	while keeping
0.2930000000	anytime algorithms
0.2930000000	beliefs about
0.2930000000	sqrt m
0.2930000000	approximation ratio
0.2930000000	science and
0.2930000000	margin loss
0.2930000000	by combining
0.2930000000	by applying
0.2930000000	a study
0.2930000000	in convex
0.2930000000	a cascade
0.2930000000	a general
0.2930000000	a type
0.2930000000	in natural
0.2930000000	a reinforcement
0.2930000000	a sum
0.2930000000	a policy
0.2930000000	a kind
0.2930000000	tight frame
0.2930000000	segmentation approach
0.2930000000	keep track
0.2920000000	natural language processing nlp tasks
0.2920000000	neural machine translation nmt models
0.2920000000	the art methods in terms
0.2920000000	the word sense disambiguation
0.2920000000	large amounts of data
0.2920000000	guaranteed to converge to
0.2920000000	the so called
0.2920000000	model based clustering
0.2920000000	information theoretic framework
0.2920000000	high dimensional datasets
0.2920000000	used to evaluate
0.2920000000	object detection method
0.2920000000	the robot s
0.2920000000	an ell 2
0.2920000000	open information extraction
0.2920000000	the near future
0.2920000000	in other words
0.2920000000	multiple object tracking
0.2920000000	based question answering
0.2920000000	model selection problem
0.2920000000	the proposed network
0.2920000000	based feature selection
0.2920000000	the proposed models
0.2920000000	algorithms with respect
0.2920000000	constraint propagation algorithms
0.2920000000	in real world
0.2920000000	belief revision in
0.2920000000	shows promising results
0.2920000000	metric learning methods
0.2920000000	the shared task
0.2920000000	bayesian optimization algorithm
0.2920000000	policy search method
0.2920000000	content based video
0.2920000000	majority class
0.2920000000	higher energy
0.2920000000	higher performance
0.2920000000	user satisfaction
0.2920000000	web users
0.2920000000	favorable properties
0.2920000000	trained to
0.2920000000	regression forests
0.2920000000	image smoothing
0.2920000000	prior based
0.2920000000	stochastic first
0.2920000000	processes gps
0.2920000000	convex composite
0.2920000000	points of
0.2920000000	kind of
0.2920000000	change points
0.2920000000	node and
0.2920000000	resolution depth
0.2920000000	product distributions
0.2920000000	improvement over
0.2920000000	deep multitask
0.2920000000	spatial and
0.2920000000	strongly adaptive
0.2920000000	research topics
0.2920000000	types of
0.2920000000	gradient estimation
0.2920000000	results imply
0.2920000000	hard clustering
0.2920000000	gradient matching
0.2920000000	efficient prediction
0.2920000000	tens of
0.2920000000	the visual
0.2920000000	trading off
0.2920000000	the dataset
0.2920000000	the language
0.2920000000	the nature
0.2920000000	the vc
0.2920000000	the capacity
0.2920000000	the limitations
0.2920000000	annotated datasets
0.2920000000	the algorithm
0.2920000000	the foreground
0.2920000000	the game
0.2920000000	the worst
0.2920000000	the classification
0.2920000000	the extraction
0.2920000000	the human
0.2920000000	the clusters
0.2920000000	the benefit
0.2920000000	precision and
0.2920000000	the usefulness
0.2920000000	the image
0.2920000000	the inference
0.2920000000	the latent
0.2920000000	the source
0.2920000000	the temporal
0.2920000000	the efficacy
0.2920000000	the linear
0.2920000000	the greedy
0.2920000000	the applicability
0.2920000000	the creation
0.2920000000	intermediate results
0.2920000000	score distribution
0.2920000000	interact with
0.2920000000	optimization process
0.2920000000	information exchange
0.2920000000	proposed to
0.2920000000	embedding method
0.2920000000	small perturbations
0.2920000000	learning social
0.2920000000	extraction systems
0.2920000000	color distribution
0.2920000000	proof of
0.2920000000	action categories
0.2920000000	arbitrary oriented
0.2920000000	spectral learning
0.2920000000	fast and
0.2920000000	global optimisation
0.2920000000	level analysis
0.2920000000	human players
0.2920000000	learn image
0.2920000000	of text
0.2920000000	communication systems
0.2920000000	undirected models
0.2920000000	population models
0.2920000000	instance labels
0.2920000000	data embedding
0.2920000000	adaptation method
0.2920000000	input values
0.2920000000	shed light
0.2920000000	an ontology
0.2920000000	dnn models
0.2920000000	self replicating
0.2920000000	an alternate
0.2920000000	based texture
0.2920000000	input and
0.2920000000	key words
0.2920000000	by exploiting
0.2920000000	computational speed
0.2920000000	closer to
0.2920000000	various aspects
0.2920000000	large image
0.2920000000	converge to
0.2920000000	pieces of
0.2920000000	meta features
0.2920000000	drawn from
0.2920000000	belief model
0.2920000000	and time
0.2920000000	and speech
0.2920000000	entropy function
0.2920000000	temporal context
0.2920000000	and large
0.2920000000	temporal models
0.2920000000	appearance model
0.2920000000	asymptotic convergence
0.2920000000	effectively reduce
0.2920000000	logical inference
0.2920000000	a loss
0.2920000000	classical kernel
0.2920000000	a video
0.2920000000	a 3d
0.2920000000	a proof
0.2920000000	multiple languages
0.2920000000	converges to
0.2920000000	production systems
0.2920000000	resulted in
0.2920000000	fuzzy model
0.2910000000	a variety of synthetic and
0.2910000000	the presence of missing data
0.2910000000	to take into account
0.2910000000	hand pose estimation from
0.2910000000	the formation of
0.2910000000	the conditional probability
0.2910000000	a bayesian approach
0.2910000000	a key role
0.2910000000	the control of
0.2910000000	human decision making
0.2910000000	the derivation of
0.2910000000	ell 1 regularization
0.2910000000	a new class
0.2910000000	particularly well suited
0.2910000000	real world images
0.2910000000	object recognition tasks
0.2910000000	image classification benchmarks
0.2910000000	the source of
0.2910000000	a statistical model
0.2910000000	at various levels
0.2910000000	a multi stage
0.2910000000	the art results
0.2910000000	english language
0.2910000000	adaptive control
0.2910000000	sparse spectrum
0.2910000000	regression based
0.2910000000	evaluated on
0.2910000000	one image
0.2910000000	user study
0.2910000000	individual word
0.2910000000	spike based
0.2910000000	constraints imposed
0.2910000000	car detection
0.2910000000	network called
0.2910000000	speed and
0.2910000000	source of
0.2910000000	image categorization
0.2910000000	several applications
0.2910000000	two fundamental
0.2910000000	dimensional vector
0.2910000000	shown to
0.2910000000	from big
0.2910000000	order of
0.2910000000	gradient information
0.2910000000	each pair
0.2910000000	too large
0.2910000000	demand response
0.2910000000	lloyd s
0.2910000000	important factors
0.2910000000	the 20th
0.2910000000	iterative methods
0.2910000000	iteratively update
0.2910000000	the players
0.2910000000	the age
0.2910000000	the pareto
0.2910000000	the kitti
0.2910000000	the corpus
0.2910000000	the scores
0.2910000000	the pseudo
0.2910000000	the calibration
0.2910000000	the local
0.2910000000	inference scheme
0.2910000000	the user
0.2910000000	biological networks
0.2910000000	the completion
0.2910000000	the newly
0.2910000000	the highest
0.2910000000	the bayesian
0.2910000000	budget constraints
0.2910000000	descent sgd
0.2910000000	sets of
0.2910000000	learning discriminative
0.2910000000	information technology
0.2910000000	local structure
0.2910000000	standard approaches
0.2910000000	sensitive hashing
0.2910000000	open question
0.2910000000	color correction
0.2910000000	24 hours
0.2910000000	enormous amount
0.2910000000	effective representation
0.2910000000	field of
0.2910000000	very successful
0.2910000000	fast approximate
0.2910000000	fast inference
0.2910000000	level annotations
0.2910000000	structural features
0.2910000000	unconstrained binary
0.2910000000	projection based
0.2910000000	based denoising
0.2910000000	to reconstruct
0.2910000000	data demonstrate
0.2910000000	to alleviate
0.2910000000	automatically detecting
0.2910000000	training times
0.2910000000	writing systems
0.2910000000	graph grammar
0.2910000000	conflict resolution
0.2910000000	approach performs
0.2910000000	approach shows
0.2910000000	conjunction with
0.2910000000	labeled dataset
0.2910000000	similar objects
0.2910000000	sequential patterns
0.2910000000	sequential decision
0.2910000000	perform better
0.2910000000	networks for
0.2910000000	erm problems
0.2910000000	a mapping
0.2910000000	a latent
0.2910000000	convolution operation
0.2910000000	area of
0.2910000000	r m
0.2910000000	detection framework
0.2910000000	a bidirectional
0.2910000000	a step
0.2910000000	vehicle tracking
0.2900000000	a low dimensional subspace
0.2900000000	learning bayesian networks from
0.2900000000	in terms of accuracy
0.2900000000	the local and global
0.2900000000	so as to maximize
0.2900000000	gradient descent algorithm for
0.2900000000	a by product
0.2900000000	the gold standard
0.2900000000	the main challenges
0.2900000000	voc 2012 dataset
0.2900000000	the metropolis hastings
0.2900000000	inference in bayesian
0.2900000000	the characteristics of
0.2900000000	the recognition accuracy
0.2900000000	law of large
0.2900000000	the mini batch
0.2900000000	the bethe approximation
0.2900000000	multi kernel learning
0.2900000000	simple to implement
0.2900000000	the n gram
0.2900000000	the art performance
0.2900000000	one hot
0.2900000000	challenging problem
0.2900000000	depth based
0.2900000000	stdp learning
0.2900000000	mixed type
0.2900000000	2 log
0.2900000000	orthogonal matrices
0.2900000000	image sequence
0.2900000000	infinitely many
0.2900000000	newly proposed
0.2900000000	event retrieval
0.2900000000	hand tracking
0.2900000000	many real
0.2900000000	modeling framework
0.2900000000	voting scheme
0.2900000000	invariance properties
0.2900000000	inside outside
0.2900000000	recovery problem
0.2900000000	tracked object
0.2900000000	the datasets
0.2900000000	the proposal
0.2900000000	the attack
0.2900000000	the strength
0.2900000000	the expert
0.2900000000	the first
0.2900000000	the literature
0.2900000000	parkinson s
0.2900000000	linear speedup
0.2900000000	learning of
0.2900000000	popular methods
0.2900000000	importance weighting
0.2900000000	human feedback
0.2900000000	of tasks
0.2900000000	of color
0.2900000000	general intelligence
0.2900000000	systematic search
0.2900000000	based rough
0.2900000000	automatically extract
0.2900000000	aiming at
0.2900000000	selection bias
0.2900000000	lines of
0.2900000000	training and
0.2900000000	training dnns
0.2900000000	content aware
0.2900000000	power system
0.2900000000	share similar
0.2900000000	similarity metrics
0.2900000000	bayesian framework
0.2900000000	non uniform
0.2900000000	manually designed
0.2900000000	and random
0.2900000000	probabilistic program
0.2900000000	convolutional autoencoder
0.2900000000	computing systems
0.2900000000	analysis suggests
0.2900000000	a wider
0.2900000000	a shape
0.2900000000	convolution network
0.2900000000	a lack
0.2900000000	a stationary
0.2900000000	1 rho
0.2900000000	a log
0.2900000000	spatially adaptive
0.2890000000	for semantic image segmentation
0.2890000000	a single rgb image
0.2890000000	tasks in computer vision
0.2890000000	and does not rely
0.2890000000	the similarity between
0.2890000000	this report describes
0.2890000000	a bayesian framework
0.2890000000	the auto encoder
0.2890000000	the nature of
0.2890000000	spatio temporal receptive
0.2890000000	a time series
0.2890000000	logic programming ilp
0.2890000000	the frequency domain
0.2890000000	decision theoretic planning
0.2890000000	boosted decision trees
0.2890000000	the matrix completion
0.2890000000	o log t
0.2890000000	for human action
0.2890000000	free grammars
0.2890000000	sparse rewards
0.2890000000	software library
0.2890000000	norm penalty
0.2890000000	nonlinear dynamics
0.2890000000	other agents
0.2890000000	sentence embedding
0.2890000000	conjugate prior
0.2890000000	source python
0.2890000000	facial regions
0.2890000000	dual coordinate
0.2890000000	as compared
0.2890000000	two sets
0.2890000000	frequency words
0.2890000000	faster r
0.2890000000	point in
0.2890000000	decentralized control
0.2890000000	traffic prediction
0.2890000000	k armed
0.2890000000	varying illumination
0.2890000000	chain graph
0.2890000000	monotonic reasoning
0.2890000000	for mobile
0.2890000000	from large
0.2890000000	separate training
0.2890000000	cityscapes dataset
0.2890000000	multilingual word
0.2890000000	theta 1
0.2890000000	mover s
0.2890000000	modern gpu
0.2890000000	simplified version
0.2890000000	the error
0.2890000000	relevance measure
0.2890000000	the invariance
0.2890000000	the acoustic
0.2890000000	the online
0.2890000000	the flexibility
0.2890000000	the filters
0.2890000000	the conditional
0.2890000000	the discovery
0.2890000000	frequent pattern
0.2890000000	german translation
0.2890000000	learning in
0.2890000000	speech and
0.2890000000	contribute to
0.2890000000	originally introduced
0.2890000000	benefiting from
0.2890000000	of models
0.2890000000	general debate
0.2890000000	propose to
0.2890000000	human behaviors
0.2890000000	partial observations
0.2890000000	volume preserving
0.2890000000	valued kernel
0.2890000000	squares estimator
0.2890000000	acyclic graphs
0.2890000000	closest point
0.2890000000	variable splitting
0.2890000000	to recover
0.2890000000	to discover
0.2890000000	to inference
0.2890000000	bag of
0.2890000000	significant speedups
0.2890000000	nystrom method
0.2890000000	constant factors
0.2890000000	adversarial discriminator
0.2890000000	theoretic principles
0.2890000000	static and
0.2890000000	performs better
0.2890000000	at multiple
0.2890000000	asymptotic bias
0.2890000000	nn architecture
0.2890000000	text detector
0.2890000000	cluster ensemble
0.2890000000	cluster assignment
0.2890000000	object poses
0.2890000000	previously studied
0.2890000000	networks dbns
0.2890000000	video deblurring
0.2890000000	highest performing
0.2890000000	attribute labels
0.2890000000	frac n
0.2890000000	easy to
0.2890000000	unifying view
0.2890000000	a definition
0.2890000000	a patient
0.2890000000	degrees of
0.2890000000	in vivo
0.2890000000	a map
0.2890000000	cross spectral
0.2880000000	deep fully convolutional neural network
0.2880000000	both synthetic and real datasets
0.2880000000	the second part of
0.2880000000	supervised and unsupervised learning
0.2880000000	of deep neural networks
0.2880000000	of generative adversarial
0.2880000000	the wavelet transform
0.2880000000	video object detection
0.2880000000	the form of
0.2880000000	strongly convex problems
0.2880000000	low dimensional linear
0.2880000000	the target language
0.2880000000	the regression function
0.2880000000	a new technique
0.2880000000	image generation tasks
0.2880000000	medical image classification
0.2880000000	proximal gradient methods
0.2880000000	objective evolutionary algorithm
0.2880000000	feature selection problems
0.2880000000	filter based tracking
0.2880000000	binarized neural networks
0.2880000000	the nonnegative matrix
0.2880000000	very time consuming
0.2880000000	f x i
0.2880000000	dictionary learning methods
0.2880000000	arises in
0.2880000000	experimental setup
0.2880000000	inputs and
0.2880000000	generative network
0.2880000000	sequence to
0.2880000000	ontology engineering
0.2880000000	combination of
0.2880000000	effort estimation
0.2880000000	face clustering
0.2880000000	network traffic
0.2880000000	face regions
0.2880000000	outperforms standard
0.2880000000	bit precision
0.2880000000	image filtering
0.2880000000	ontology and
0.2880000000	center pixel
0.2880000000	cs theory
0.2880000000	bayes classifiers
0.2880000000	bayes model
0.2880000000	for real
0.2880000000	hard problem
0.2880000000	payoff function
0.2880000000	haar like
0.2880000000	the patch
0.2880000000	the free
0.2880000000	the connection
0.2880000000	the integration
0.2880000000	the program
0.2880000000	the factorization
0.2880000000	the sensitivity
0.2880000000	the dependence
0.2880000000	the big
0.2880000000	the decision
0.2880000000	the denoising
0.2880000000	the privacy
0.2880000000	signal model
0.2880000000	the category
0.2880000000	pooling operators
0.2880000000	attention module
0.2880000000	popular clustering
0.2880000000	cost volume
0.2880000000	proposed stochastic
0.2880000000	context vector
0.2880000000	learning sparse
0.2880000000	continuous action
0.2880000000	observable environments
0.2880000000	no regret
0.2880000000	level semantic
0.2880000000	top 1
0.2880000000	top 5
0.2880000000	very popular
0.2880000000	clustering analysis
0.2880000000	coding techniques
0.2880000000	search approaches
0.2880000000	shape reconstruction
0.2880000000	shape matching
0.2880000000	substantially better
0.2880000000	diffusion maps
0.2880000000	preprocessing stage
0.2880000000	class separability
0.2880000000	to guide
0.2880000000	pose dataset
0.2880000000	data classification
0.2880000000	recent papers
0.2880000000	parameter identification
0.2880000000	an increasingly
0.2880000000	an attention
0.2880000000	truth values
0.2880000000	an extensive
0.2880000000	an opportunity
0.2880000000	generation network
0.2880000000	data and
0.2880000000	conversation models
0.2880000000	weighted average
0.2880000000	assessment method
0.2880000000	computationally costly
0.2880000000	adversarial model
0.2880000000	target density
0.2880000000	similarity of
0.2880000000	optimal rates
0.2880000000	optimal clustering
0.2880000000	random search
0.2880000000	object properties
0.2880000000	temporal localization
0.2880000000	memetic algorithms
0.2880000000	object and
0.2880000000	error loss
0.2880000000	body of
0.2880000000	quantization method
0.2880000000	a word
0.2880000000	output learning
0.2880000000	under consideration
0.2880000000	in large
0.2880000000	selected variables
0.2880000000	a directed
0.2880000000	a relation
0.2880000000	a unifying
0.2880000000	a summary
0.2880000000	a simulation
0.2880000000	a property
0.2880000000	a toy
0.2870000000	in mathbb r n times
0.2870000000	the traveling salesman problem tsp
0.2870000000	both theoretically and empirically
0.2870000000	support vector machines and
0.2870000000	blood vessels in
0.2870000000	the validation set
0.2870000000	a new model
0.2870000000	random dot product
0.2870000000	a second order
0.2870000000	a latent space
0.2870000000	neural networks dnns
0.2870000000	robust visual tracking
0.2870000000	approximate linear programming
0.2870000000	cifar 10 100
0.2870000000	the gaussian mixture
0.2870000000	in section 2
0.2870000000	numerical solutions of
0.2870000000	a very large
0.2870000000	random fields mrfs
0.2870000000	the art method
0.2870000000	at multiple levels
0.2870000000	the best of
0.2870000000	wide angle
0.2870000000	this study
0.2870000000	naturally generalizes
0.2870000000	require careful
0.2870000000	credal networks
0.2870000000	bandit algorithm
0.2870000000	lambek s
0.2870000000	performance metric
0.2870000000	entities and
0.2870000000	unsupervised method
0.2870000000	empirical data
0.2870000000	three types
0.2870000000	high school
0.2870000000	image descriptors
0.2870000000	invariant representation
0.2870000000	covariance operators
0.2870000000	markov process
0.2870000000	deep convnets
0.2870000000	on large
0.2870000000	max sum
0.2870000000	on synthetic
0.2870000000	simulation experiments
0.2870000000	the reservoir
0.2870000000	superior performances
0.2870000000	mfcc features
0.2870000000	the channel
0.2870000000	the mechanism
0.2870000000	the fine
0.2870000000	x t
0.2870000000	the gan
0.2870000000	the beginning
0.2870000000	some cases
0.2870000000	most importantly
0.2870000000	feature transformation
0.2870000000	through extensive
0.2870000000	using fuzzy
0.2870000000	fully exploited
0.2870000000	low order
0.2870000000	no prior
0.2870000000	decision forests
0.2870000000	become popular
0.2870000000	general setting
0.2870000000	of cancer
0.2870000000	competing approaches
0.2870000000	to represent
0.2870000000	modular systems
0.2870000000	comparable or
0.2870000000	uncertain environment
0.2870000000	sample data
0.2870000000	spam detection
0.2870000000	an upper
0.2870000000	to mitigate
0.2870000000	to converge
0.2870000000	an adaptive
0.2870000000	syntactic and
0.2870000000	textural features
0.2870000000	further improved
0.2870000000	large vocabulary
0.2870000000	optimal performance
0.2870000000	pointer network
0.2870000000	magnitude fewer
0.2870000000	belief update
0.2870000000	and real
0.2870000000	driving scenes
0.2870000000	in situ
0.2870000000	a multilayer
0.2870000000	flow forecasting
0.2870000000	a fine
0.2870000000	a hard
0.2870000000	problem involving
0.2870000000	increasing interest
0.2870000000	loss for
0.2870000000	a memory
0.2870000000	a web
0.2870000000	a diverse
0.2870000000	1 gamma
0.2870000000	a foundation
0.2870000000	document categorization
0.2860000000	long short term memory lstm based
0.2860000000	the last two decades
0.2860000000	the echo state
0.2860000000	two sample testing
0.2860000000	active learning algorithm
0.2860000000	the whole image
0.2860000000	a block coordinate
0.2860000000	almost sure convergence
0.2860000000	rnn encoder decoder
0.2860000000	the convex relaxation
0.2860000000	the target image
0.2860000000	a new framework
0.2860000000	the universal approximation
0.2860000000	the inverse problem
0.2860000000	answer set optimization
0.2860000000	the most common
0.2860000000	a relatively small
0.2860000000	a character based
0.2860000000	reinforcement learning agents
0.2860000000	interactive image segmentation
0.2860000000	metric learning based
0.2860000000	the combination of
0.2860000000	to end architecture
0.2860000000	the art performances
0.2860000000	shared information
0.2860000000	relatively small
0.2860000000	clinical research
0.2860000000	generalize to
0.2860000000	depth perception
0.2860000000	processing and
0.2860000000	regression and
0.2860000000	jointly learned
0.2860000000	vector fields
0.2860000000	answer selection
0.2860000000	recognition results
0.2860000000	trained end
0.2860000000	generalize well
0.2860000000	trajectory data
0.2860000000	geometric structure
0.2860000000	raw images
0.2860000000	prior methods
0.2860000000	language families
0.2860000000	different levels
0.2860000000	three main
0.2860000000	much attention
0.2860000000	language e.g
0.2860000000	prediction approaches
0.2860000000	fields including
0.2860000000	spatial data
0.2860000000	weights and
0.2860000000	build upon
0.2860000000	vision algorithms
0.2860000000	each stage
0.2860000000	results highlight
0.2860000000	for semantic
0.2860000000	the mutual
0.2860000000	the heuristic
0.2860000000	the attribute
0.2860000000	the autoencoder
0.2860000000	the upper
0.2860000000	existing metrics
0.2860000000	the iris
0.2860000000	the retina
0.2860000000	the meta
0.2860000000	the opposite
0.2860000000	the optimality
0.2860000000	lexical acquisition
0.2860000000	local optimal
0.2860000000	learning optimization
0.2860000000	positive class
0.2860000000	wireless network
0.2860000000	action segmentation
0.2860000000	semantic networks
0.2860000000	primal and
0.2860000000	evaluation protocols
0.2860000000	designed and
0.2860000000	of great
0.2860000000	of retinal
0.2860000000	representation error
0.2860000000	of arabic
0.2860000000	very similar
0.2860000000	relevant variables
0.2860000000	estimation network
0.2860000000	dominated by
0.2860000000	student model
0.2860000000	input layer
0.2860000000	an elegant
0.2860000000	to focus
0.2860000000	to search
0.2860000000	an energy
0.2860000000	data sparsity
0.2860000000	data compression
0.2860000000	identification task
0.2860000000	multi word
0.2860000000	ordinal data
0.2860000000	by proposing
0.2860000000	key components
0.2860000000	computationally challenging
0.2860000000	acquisition process
0.2860000000	experiments validate
0.2860000000	translation rules
0.2860000000	optimal design
0.2860000000	large network
0.2860000000	clause learning
0.2860000000	non differentiable
0.2860000000	non overlapping
0.2860000000	networks of
0.2860000000	and fuzzy
0.2860000000	and imagenet
0.2860000000	label video
0.2860000000	and memory
0.2860000000	object pose
0.2860000000	and robustness
0.2860000000	object instance
0.2860000000	volumes of
0.2860000000	easier to
0.2860000000	variational approach
0.2860000000	a comparative
0.2860000000	a long
0.2860000000	a list
0.2860000000	a cost
0.2850000000	real world datasets show
0.2850000000	a simple yet powerful
0.2850000000	the variational lower bound
0.2850000000	the number of model
0.2850000000	motion and appearance
0.2850000000	multiple linear regression
0.2850000000	the f measure
0.2850000000	saliency maps and
0.2850000000	image style transfer
0.2850000000	supervised domain adaptation
0.2850000000	limited field of
0.2850000000	a new type
0.2850000000	and gender classification
0.2850000000	a new method
0.2850000000	x ray ct
0.2850000000	tilde o n
0.2850000000	a value function
0.2850000000	this short note
0.2850000000	a strong baseline
0.2850000000	a multi objective
0.2850000000	and in terms
0.2850000000	base classifier
0.2850000000	higher than
0.2850000000	this purpose
0.2850000000	major bottleneck
0.2850000000	size increases
0.2850000000	source and
0.2850000000	ability to
0.2850000000	theoretical and
0.2850000000	than previous
0.2850000000	layers followed
0.2850000000	principal directions
0.2850000000	hand eye
0.2850000000	demand prediction
0.2850000000	alzheimer s
0.2850000000	factorized distribution
0.2850000000	the ann
0.2850000000	the feasibility
0.2850000000	the mnist
0.2850000000	the shortest
0.2850000000	the introduction
0.2850000000	the gradients
0.2850000000	the special
0.2850000000	the confidence
0.2850000000	the capability
0.2850000000	region of
0.2850000000	the imagenet
0.2850000000	the outcome
0.2850000000	the compressed
0.2850000000	continuous optimization
0.2850000000	methods outperform
0.2850000000	of brain
0.2850000000	sensor noise
0.2850000000	matching network
0.2850000000	room for
0.2850000000	of face
0.2850000000	of model
0.2850000000	more suitable
0.2850000000	occurrence matrices
0.2850000000	any kind
0.2850000000	based segmentation
0.2850000000	to accelerate
0.2850000000	based rnn
0.2850000000	while preserving
0.2850000000	automatically select
0.2850000000	to resolve
0.2850000000	to incorporate
0.2850000000	pairwise ranking
0.2850000000	an encoder
0.2850000000	an approximation
0.2850000000	an arbitrary
0.2850000000	an optimization
0.2850000000	to discriminate
0.2850000000	these issues
0.2850000000	uncertain knowledge
0.2850000000	rnn architecture
0.2850000000	unit detection
0.2850000000	better results
0.2850000000	supported by
0.2850000000	by leveraging
0.2850000000	by adding
0.2850000000	brain areas
0.2850000000	synthetic and
0.2850000000	random mutation
0.2850000000	and analysis
0.2850000000	error analysis
0.2850000000	a broad
0.2850000000	carefully selected
0.2850000000	rank representation
0.2850000000	a basis
0.2850000000	a hierarchy
0.2850000000	a difficult
0.2850000000	a prototype
0.2850000000	in comparison
0.2850000000	a form
0.2850000000	a rule
0.2850000000	a shallow
0.2840000000	for visual question answering
0.2840000000	the sequence to sequence
0.2840000000	detection and segmentation of
0.2840000000	the advantages and disadvantages
0.2840000000	pos tagging and
0.2840000000	a novel algorithm
0.2840000000	a novel framework
0.2840000000	the concept of
0.2840000000	type ii error
0.2840000000	a new algorithm
0.2840000000	for face recognition
0.2840000000	a growing number
0.2840000000	the comparison of
0.2840000000	point to point
0.2840000000	o 1 t
0.2840000000	the improved performance
0.2840000000	semantic embedding space
0.2840000000	semantically rich
0.2840000000	nonlinear manifold
0.2840000000	emerged as
0.2840000000	this task
0.2840000000	egocentric vision
0.2840000000	model named
0.2840000000	accuracy loss
0.2840000000	implementation of
0.2840000000	this type
0.2840000000	model and
0.2840000000	asp systems
0.2840000000	primary contribution
0.2840000000	strictly convex
0.2840000000	combinatorial problem
0.2840000000	illumination invariant
0.2840000000	several advantages
0.2840000000	face bounding
0.2840000000	successful applications
0.2840000000	significantly smaller
0.2840000000	network and
0.2840000000	network in
0.2840000000	two types
0.2840000000	remains largely
0.2840000000	k geq
0.2840000000	drug design
0.2840000000	research attention
0.2840000000	on real
0.2840000000	control theory
0.2840000000	spatial locality
0.2840000000	occluded objects
0.2840000000	bernoulli distribution
0.2840000000	the moon
0.2840000000	matrix and
0.2840000000	the issue
0.2840000000	the gap
0.2840000000	the expansion
0.2840000000	the idea
0.2840000000	the focus
0.2840000000	coordinate wise
0.2840000000	the extracted
0.2840000000	the possibility
0.2840000000	the rest
0.2840000000	iterative thresholding
0.2840000000	regular expression
0.2840000000	hidden representations
0.2840000000	linear quadratic
0.2840000000	joint inference
0.2840000000	budget constraint
0.2840000000	learning perspective
0.2840000000	standard methods
0.2840000000	researchers working
0.2840000000	intuitive interpretation
0.2840000000	news events
0.2840000000	lstm architecture
0.2840000000	of independent
0.2840000000	euclidean projection
0.2840000000	method shows
0.2840000000	very limited
0.2840000000	edge detectors
0.2840000000	reconstruction accuracy
0.2840000000	simplest form
0.2840000000	euclidean geometry
0.2840000000	benchmarks demonstrate
0.2840000000	class conditional
0.2840000000	an evolutionary
0.2840000000	population dynamics
0.2840000000	sample complexities
0.2840000000	an evaluation
0.2840000000	automatically extracted
0.2840000000	null distribution
0.2840000000	resource costs
0.2840000000	f 1
0.2840000000	weighted magnetic
0.2840000000	interpretable models
0.2840000000	appearance features
0.2840000000	non local
0.2840000000	manually created
0.2840000000	with deep
0.2840000000	classification datasets
0.2840000000	and image
0.2840000000	networks bns
0.2840000000	temporal consistency
0.2840000000	feedforward networks
0.2840000000	per frame
0.2840000000	a plan
0.2840000000	denoising algorithms
0.2840000000	detection techniques
0.2840000000	a graphical
0.2840000000	a tool
0.2840000000	in medical
0.2840000000	a survey
0.2840000000	a growing
0.2840000000	a polynomial
0.2840000000	a solution
0.2840000000	a variant
0.2840000000	a total
0.2840000000	a case
0.2840000000	a factor
0.2840000000	in evolutionary
0.2840000000	a low
0.2840000000	deviation bounds
0.2830000000	compared to other state of
0.2830000000	a fully convolutional network fcn
0.2830000000	the global and local
0.2830000000	number of variables in
0.2830000000	human pose estimation from
0.2830000000	a vector space
0.2830000000	pattern recognition and
0.2830000000	a novel method
0.2830000000	system of linear
0.2830000000	an experimental study
0.2830000000	a novel approach
0.2830000000	large numbers of
0.2830000000	the character level
0.2830000000	a new dataset
0.2830000000	the sense of
0.2830000000	a polynomial time
0.2830000000	a completely unsupervised
0.2830000000	lower bound for
0.2830000000	the behaviour of
0.2830000000	a region of
0.2830000000	measurement unit
0.2830000000	model distillation
0.2830000000	sampling schemes
0.2830000000	sentence ordering
0.2830000000	trained network
0.2830000000	raw text
0.2830000000	theoretical considerations
0.2830000000	distributional assumptions
0.2830000000	corrupted observations
0.2830000000	perfect reconstruction
0.2830000000	order to
0.2830000000	previous researches
0.2830000000	each layer
0.2830000000	each step
0.2830000000	polynomial equations
0.2830000000	music generation
0.2830000000	the difficulty
0.2830000000	superior to
0.2830000000	the potential
0.2830000000	multivariate normal
0.2830000000	the implementation
0.2830000000	the robust
0.2830000000	the utility
0.2830000000	the relationship
0.2830000000	the clinical
0.2830000000	the reliability
0.2830000000	the availability
0.2830000000	the sum
0.2830000000	the origin
0.2830000000	c sqrt
0.2830000000	ground vehicles
0.2830000000	standard deviations
0.2830000000	information mi
0.2830000000	popular datasets
0.2830000000	using deep
0.2830000000	scoring rules
0.2830000000	generated summaries
0.2830000000	subspace recovery
0.2830000000	of 3d
0.2830000000	state transducers
0.2830000000	of meaning
0.2830000000	search logs
0.2830000000	more effective
0.2830000000	mode decomposition
0.2830000000	fidelity term
0.2830000000	to evaluate
0.2830000000	an information
0.2830000000	an implementation
0.2830000000	an empirical
0.2830000000	based and
0.2830000000	an embedding
0.2830000000	easily incorporated
0.2830000000	density estimators
0.2830000000	requires careful
0.2830000000	t 1
0.2830000000	weighted averaging
0.2830000000	better performance
0.2830000000	various types
0.2830000000	maximization em
0.2830000000	compositional models
0.2830000000	solved by
0.2830000000	collective behavior
0.2830000000	a library
0.2830000000	a review
0.2830000000	increasing popularity
0.2830000000	a trajectory
0.2830000000	a corpus
0.2830000000	a semi
0.2830000000	a principled
0.2830000000	a sentiment
0.2830000000	a comparison
0.2830000000	a taxonomy
0.2830000000	a framework
0.2830000000	a dataset
0.2830000000	a pre
0.2830000000	border detection
0.2830000000	preference relation
0.2830000000	band selection
0.2820000000	compared with other state of
0.2820000000	art machine learning algorithms
0.2820000000	the second order statistics
0.2820000000	for hand pose estimation
0.2820000000	model based diagnosis
0.2820000000	community question answering
0.2820000000	a linear combination
0.2820000000	free reinforcement learning
0.2820000000	group decision making
0.2820000000	video face recognition
0.2820000000	the locations of
0.2820000000	a new approach
0.2820000000	a convex optimization
0.2820000000	a dataset of
0.2820000000	a two dimensional
0.2820000000	face recognition algorithms
0.2820000000	efficiently and accurately
0.2820000000	a generative adversarial
0.2820000000	dynamic bayesian networks
0.2820000000	medical image registration
0.2820000000	high level feature
0.2820000000	rgb and depth
0.2820000000	large knowledge graphs
0.2820000000	multi objective genetic
0.2820000000	multilayer neural networks
0.2820000000	software agents
0.2820000000	decide whether
0.2820000000	structured language
0.2820000000	word problems
0.2820000000	b bit
0.2820000000	model proposed
0.2820000000	pre segmented
0.2820000000	stochastic control
0.2820000000	image sensor
0.2820000000	image detection
0.2820000000	land use
0.2820000000	transformation network
0.2820000000	order planning
0.2820000000	on simulated
0.2820000000	quadratic form
0.2820000000	for large
0.2820000000	the false
0.2820000000	autonomous learning
0.2820000000	the story
0.2820000000	the remote
0.2820000000	the retrieval
0.2820000000	the absence
0.2820000000	the ability
0.2820000000	the particle
0.2820000000	the area
0.2820000000	planning domain
0.2820000000	the histogram
0.2820000000	the construction
0.2820000000	planning competition
0.2820000000	systems theory
0.2820000000	the emergence
0.2820000000	the degree
0.2820000000	the outliers
0.2820000000	the validation
0.2820000000	the effects
0.2820000000	the dialogue
0.2820000000	the reasoning
0.2820000000	the hash
0.2820000000	the database
0.2820000000	tradeoff between
0.2820000000	feature importance
0.2820000000	proposed local
0.2820000000	multinomial distribution
0.2820000000	extraction methods
0.2820000000	pca problem
0.2820000000	subjective visual
0.2820000000	true labels
0.2820000000	motion fields
0.2820000000	of dnns
0.2820000000	of body
0.2820000000	very low
0.2820000000	reconstruction technique
0.2820000000	very high
0.2820000000	kernel network
0.2820000000	occurrence statistics
0.2820000000	an objective
0.2820000000	portion of
0.2820000000	data parallel
0.2820000000	an improvement
0.2820000000	rl tasks
0.2820000000	to acquire
0.2820000000	an application
0.2820000000	an accuracy
0.2820000000	dialogue model
0.2820000000	an instance
0.2820000000	syntactic dependencies
0.2820000000	density map
0.2820000000	space to
0.2820000000	missing word
0.2820000000	deviates from
0.2820000000	risk factor
0.2820000000	fusion techniques
0.2820000000	boolean function
0.2820000000	intrinsic geometry
0.2820000000	text representation
0.2820000000	classification stage
0.2820000000	and compared
0.2820000000	bayesian multi
0.2820000000	scene graphs
0.2820000000	generalization analysis
0.2820000000	a wide
0.2820000000	a mixture
0.2820000000	in japanese
0.2820000000	a computationally
0.2820000000	a measure
0.2820000000	a high
0.2820000000	a logarithmic
0.2820000000	convolution kernel
0.2820000000	a notion
0.2820000000	a class
0.2820000000	a generative
0.2820000000	a real
0.2820000000	a pixel
0.2820000000	a pair
0.2810000000	for fine grained image classification
0.2810000000	both qualitatively and quantitatively
0.2810000000	a convergence rate of
0.2810000000	unlike previous methods
0.2810000000	the blur kernel
0.2810000000	named entities in
0.2810000000	based dependency parsing
0.2810000000	online learning problems
0.2810000000	the key to
0.2810000000	decision making process
0.2810000000	a new perspective
0.2810000000	the addition of
0.2810000000	the design of
0.2810000000	the diagnosis of
0.2810000000	image segmentation methods
0.2810000000	adversarial examples generated
0.2810000000	high level representations
0.2810000000	a very small
0.2810000000	recognition of handwritten
0.2810000000	lower dimensional space
0.2810000000	and imagenet datasets
0.2810000000	and soft constraints
0.2810000000	o t 1
0.2810000000	the components of
0.2810000000	the paper describes
0.2810000000	sqrt n log
0.2810000000	social learning
0.2810000000	model of
0.2810000000	coco dataset
0.2810000000	shared features
0.2810000000	adaptive weights
0.2810000000	structured svm
0.2810000000	model to
0.2810000000	agent learning
0.2810000000	this leads
0.2810000000	grained classification
0.2810000000	manifold regularized
0.2810000000	facial shape
0.2810000000	empirical loss
0.2810000000	accounts for
0.2810000000	3d model
0.2810000000	image with
0.2810000000	negative feedback
0.2810000000	visual speech
0.2810000000	person re
0.2810000000	corner detection
0.2810000000	3d data
0.2810000000	factors of
0.2810000000	from 2d
0.2810000000	condition monitoring
0.2810000000	for natural
0.2810000000	product networks
0.2810000000	the goal
0.2810000000	the core
0.2810000000	the difficulties
0.2810000000	the template
0.2810000000	the success
0.2810000000	the threshold
0.2810000000	the approach
0.2810000000	the uniform
0.2810000000	the advantages
0.2810000000	the efficiency
0.2810000000	the riemannian
0.2810000000	the road
0.2810000000	the lack
0.2810000000	the expectation
0.2810000000	the previously
0.2810000000	the advantage
0.2810000000	the interface
0.2810000000	the impact
0.2810000000	the field
0.2810000000	the notion
0.2810000000	the majority
0.2810000000	the benefits
0.2810000000	the concept
0.2810000000	the purpose
0.2810000000	the crowd
0.2810000000	planning task
0.2810000000	the l0
0.2810000000	context features
0.2810000000	notions of
0.2810000000	attention modeling
0.2810000000	term dependencies
0.2810000000	standard svm
0.2810000000	dense pixel
0.2810000000	of classification
0.2810000000	of agents
0.2810000000	of motion
0.2810000000	global view
0.2810000000	grammar rules
0.2810000000	class distance
0.2810000000	an extension
0.2810000000	based rules
0.2810000000	to real
0.2810000000	an open
0.2810000000	an analysis
0.2810000000	dialogue generation
0.2810000000	resource constraints
0.2810000000	translation system
0.2810000000	exact gradient
0.2810000000	mapped onto
0.2810000000	between pairs
0.2810000000	restaurant process
0.2810000000	quality image
0.2810000000	approximation errors
0.2810000000	theoretic lower
0.2810000000	proceedings of
0.2810000000	neuron model
0.2810000000	with high
0.2810000000	text representations
0.2810000000	modeled as
0.2810000000	delta 2
0.2810000000	in fact
0.2810000000	a vital
0.2810000000	a collection
0.2810000000	a series
0.2810000000	a special
0.2810000000	a generalization
0.2810000000	a challenging
0.2810000000	in real
0.2810000000	a family
0.2810000000	a sequence
0.2810000000	detection model
0.2800000000	the number of model parameters
0.2800000000	in reproducing kernel hilbert
0.2800000000	a regret bound of
0.2800000000	the number of classes
0.2800000000	the number of variables
0.2800000000	variance reduced stochastic
0.2800000000	error rate eer
0.2800000000	a language model
0.2800000000	a logarithmic factor
0.2800000000	an ad hoc
0.2800000000	a classification task
0.2800000000	image processing operations
0.2800000000	and artificial life
0.2800000000	a regularization term
0.2800000000	o n 1
0.2800000000	cross validation procedure
0.2800000000	the new algorithm
0.2800000000	the definition of
0.2800000000	to end text
0.2800000000	t 2 3
0.2800000000	models achieve
0.2800000000	nonlinear learning
0.2800000000	regression method
0.2800000000	distributional representations
0.2800000000	convex set
0.2800000000	bounds consistency
0.2800000000	different layers
0.2800000000	stochastic linear
0.2800000000	ontology alignment
0.2800000000	simultaneous localization
0.2800000000	slide images
0.2800000000	domain shifts
0.2800000000	from facial
0.2800000000	traffic scenes
0.2800000000	the hinge
0.2800000000	the importance
0.2800000000	makes use
0.2800000000	the same
0.2800000000	the form
0.2800000000	the radius
0.2800000000	the recommender
0.2800000000	the aim
0.2800000000	most previous
0.2800000000	the simulation
0.2800000000	the pascal
0.2800000000	the development
0.2800000000	the optical
0.2800000000	defender s
0.2800000000	the existence
0.2800000000	the effect
0.2800000000	the effectiveness
0.2800000000	the role
0.2800000000	the parallel
0.2800000000	prosodic information
0.2800000000	automated planning
0.2800000000	lexical syntactic
0.2800000000	over existing
0.2800000000	corrected stochastic
0.2800000000	information gathering
0.2800000000	of functions
0.2800000000	contrastive loss
0.2800000000	human brains
0.2800000000	motion averaging
0.2800000000	omega k
0.2800000000	very important
0.2800000000	disciplines including
0.2800000000	unconstrained videos
0.2800000000	an expert
0.2800000000	an increasing
0.2800000000	parameter beta
0.2800000000	sample tests
0.2800000000	resource limited
0.2800000000	dynamic analysis
0.2800000000	by means
0.2800000000	syntax semantics
0.2800000000	random numbers
0.2800000000	label sets
0.2800000000	and machine
0.2800000000	classifier chains
0.2800000000	temporal dependency
0.2800000000	interest point
0.2800000000	organizing map
0.2800000000	under uncertainty
0.2800000000	a consequence
0.2800000000	a combination
0.2800000000	a mixed
0.2800000000	a subset
0.2800000000	in contrast
0.2800000000	in terms
0.2800000000	a range
0.2800000000	a post
0.2800000000	a lower
0.2790000000	frames per second fps
0.2790000000	the dendritic cell algorithm
0.2790000000	for natural language inference
0.2790000000	both global and local
0.2790000000	answer set programming and
0.2790000000	non rigid deformations
0.2790000000	high quality image
0.2790000000	high dimensional bayesian
0.2790000000	a novel architecture
0.2790000000	power law distribution
0.2790000000	to text generation
0.2790000000	the sampling distribution
0.2790000000	the setting of
0.2790000000	to image translation
0.2790000000	a privacy preserving
0.2790000000	stochastic optimization methods
0.2790000000	the hinge loss
0.2790000000	to deep neural
0.2790000000	the non linear
0.2790000000	sparse dictionary learning
0.2790000000	stochastic gradient algorithm
0.2790000000	the graphical model
0.2790000000	and radial basis
0.2790000000	n log b
0.2790000000	the influence diagram
0.2790000000	rely heavily on
0.2790000000	software testing
0.2790000000	user intervention
0.2790000000	regression functions
0.2790000000	energy physics
0.2790000000	unseen class
0.2790000000	one step
0.2790000000	solving techniques
0.2790000000	sentence compression
0.2790000000	p 1
0.2790000000	two challenging
0.2790000000	single step
0.2790000000	two sample
0.2790000000	distributional models
0.2790000000	event specific
0.2790000000	statistical mt
0.2790000000	statistical and
0.2790000000	tissue classification
0.2790000000	mixture modeling
0.2790000000	the response
0.2790000000	the assumptions
0.2790000000	modern neural
0.2790000000	the algebra
0.2790000000	the trajectories
0.2790000000	the 2d
0.2790000000	planning in
0.2790000000	the author
0.2790000000	the multiple
0.2790000000	the direction
0.2790000000	the constraint
0.2790000000	online multiple
0.2790000000	benchmark suite
0.2790000000	local adaptive
0.2790000000	speech tags
0.2790000000	joint reconstruction
0.2790000000	learning complex
0.2790000000	level task
0.2790000000	redundant features
0.2790000000	decision analytic
0.2790000000	human speech
0.2790000000	projections onto
0.2790000000	evaluation methods
0.2790000000	human annotator
0.2790000000	more likely
0.2790000000	of word
0.2790000000	representation matrix
0.2790000000	provable convergence
0.2790000000	transition systems
0.2790000000	latent relational
0.2790000000	dependencies between
0.2790000000	treated as
0.2790000000	universal intelligence
0.2790000000	swarm algorithm
0.2790000000	latent vectors
0.2790000000	response selection
0.2790000000	to jointly
0.2790000000	application area
0.2790000000	words as
0.2790000000	data completion
0.2790000000	disentangled representation
0.2790000000	inherent limitations
0.2790000000	independent set
0.2790000000	power iteration
0.2790000000	melanoma detection
0.2790000000	large noise
0.2790000000	nn models
0.2790000000	boosting framework
0.2790000000	original method
0.2790000000	belief updating
0.2790000000	and motion
0.2790000000	original image
0.2790000000	video features
0.2790000000	probabilistic databases
0.2790000000	poisson processes
0.2790000000	a note
0.2790000000	detection models
0.2790000000	in signal
0.2790000000	a fully
0.2790000000	a criterion
0.2790000000	problem by
0.2790000000	crf models
0.2780000000	a sequence to sequence model
0.2780000000	many computer vision applications
0.2780000000	in neural machine translation
0.2780000000	the number of support
0.2780000000	natural language question
0.2780000000	the interpretability of
0.2780000000	offline and online
0.2780000000	the sliding window
0.2780000000	objective optimization problems
0.2780000000	the confusion matrix
0.2780000000	neural networks nns
0.2780000000	for sentence classification
0.2780000000	a difficult problem
0.2780000000	a minimal set
0.2780000000	high level representation
0.2780000000	the population size
0.2780000000	from one language
0.2780000000	a depth map
0.2780000000	color image denoising
0.2780000000	long term motion
0.2780000000	trained model
0.2780000000	applications include
0.2780000000	sparse vectors
0.2780000000	this chapter
0.2780000000	experimental comparison
0.2780000000	practical importance
0.2780000000	network output
0.2780000000	case regret
0.2780000000	convex formulation
0.2780000000	discrete continuous
0.2780000000	solution method
0.2780000000	3d printing
0.2780000000	preferences and
0.2780000000	written language
0.2780000000	spatial feature
0.2780000000	for genetic
0.2780000000	efficient manner
0.2780000000	covariance estimation
0.2780000000	minimax error
0.2780000000	regulatory network
0.2780000000	annotation graphs
0.2780000000	the random
0.2780000000	the grassmann
0.2780000000	the treatment
0.2780000000	the candidate
0.2780000000	the types
0.2780000000	the tracker
0.2780000000	existing data
0.2780000000	the bilateral
0.2780000000	the fully
0.2780000000	the use
0.2780000000	the continuous
0.2780000000	the supervised
0.2780000000	the grid
0.2780000000	the demand
0.2780000000	inference techniques
0.2780000000	query by
0.2780000000	binary images
0.2780000000	manual effort
0.2780000000	feature detector
0.2780000000	memory devices
0.2780000000	pattern based
0.2780000000	cnn representations
0.2780000000	fast forward
0.2780000000	of feature
0.2780000000	very promising
0.2780000000	of communication
0.2780000000	of alzheimer
0.2780000000	more powerful
0.2780000000	search queries
0.2780000000	matching method
0.2780000000	method performs
0.2780000000	based compositional
0.2780000000	an initial
0.2780000000	input representation
0.2780000000	t norms
0.2780000000	good generalization
0.2780000000	by incorporating
0.2780000000	task assignment
0.2780000000	ensemble selection
0.2780000000	sparsity based
0.2780000000	concept classes
0.2780000000	o m
0.2780000000	passive learning
0.2780000000	and data
0.2780000000	with real
0.2780000000	label transfer
0.2780000000	scene dynamics
0.2780000000	10 times
0.2780000000	segmentation datasets
0.2780000000	segmentation network
0.2780000000	a convolutional
0.2780000000	a nash
0.2780000000	multiple users
0.2780000000	a bayesian
0.2780000000	a reward
0.2780000000	a computational
0.2780000000	a dictionary
0.2780000000	problem to
0.2770000000	in high dimensional space
0.2770000000	exploration exploitation trade off
0.2770000000	deep reinforcement learning algorithms
0.2770000000	the schatten p
0.2770000000	based encoder decoder
0.2770000000	in machine learning
0.2770000000	the wasserstein distance
0.2770000000	recursive neural network
0.2770000000	the hash functions
0.2770000000	the recognition performance
0.2770000000	the network structure
0.2770000000	the execution of
0.2770000000	the volume of
0.2770000000	off policy learning
0.2770000000	than existing
0.2770000000	acoustic data
0.2770000000	for arabic
0.2770000000	for clustering
0.2770000000	modal retrieval
0.2770000000	from single
0.2770000000	rotation matrix
0.2770000000	y z
0.2770000000	matrix entries
0.2770000000	the adaptive
0.2770000000	y j
0.2770000000	the tumor
0.2770000000	the top
0.2770000000	the requirement
0.2770000000	the burden
0.2770000000	the stochastic
0.2770000000	the binary
0.2770000000	the approximation
0.2770000000	the reference
0.2770000000	the synaptic
0.2770000000	the compression
0.2770000000	the coordinates
0.2770000000	the camera
0.2770000000	co clustering
0.2770000000	of information
0.2770000000	of large
0.2770000000	collaborative ranking
0.2770000000	implication problem
0.2770000000	evolutionary game
0.2770000000	to retrieve
0.2770000000	compression technique
0.2770000000	to cope
0.2770000000	proximity matrix
0.2770000000	training epochs
0.2770000000	a maximum
0.2770000000	saliency methods
0.2770000000	a matrix
0.2770000000	a partially
0.2770000000	a graph
0.2770000000	a sample
0.2770000000	a weakly
0.2760000000	recurrent neural network rnn and
0.2760000000	deep convolutional neural networks for
0.2760000000	partial least squares regression
0.2760000000	performance on real world
0.2760000000	semi supervised and unsupervised
0.2760000000	areas of machine learning
0.2760000000	results on benchmark datasets
0.2760000000	minimum mean square error
0.2760000000	k means clustering algorithm
0.2760000000	simulated data and real
0.2760000000	advances in deep learning
0.2760000000	convolutional and fully connected
0.2760000000	machine learning and statistics
0.2760000000	simulated and real datasets
0.2760000000	based on real world
0.2760000000	number of training images
0.2760000000	set of training data
0.2760000000	the proposed deep learning
0.2760000000	the number of features
0.2760000000	experiments on simulated data
0.2760000000	object recognition and detection
0.2760000000	forward and backward propagation
0.2760000000	object detection and recognition
0.2760000000	a predictive model
0.2760000000	not well suited
0.2760000000	the m step
0.2760000000	robust and efficient
0.2760000000	the simple genetic
0.2760000000	shortest path distance
0.2760000000	a comprehensive survey
0.2760000000	for diabetic retinopathy
0.2760000000	the machine learning
0.2760000000	for further research
0.2760000000	of named entities
0.2760000000	machine learning based
0.2760000000	dynamic programming dp
0.2760000000	feedforward neural network
0.2760000000	loss in accuracy
0.2760000000	ntu rgb d
0.2760000000	focus of attention
0.2760000000	annotated training data
0.2760000000	other types
0.2760000000	exploration strategy
0.2760000000	sub bands
0.2760000000	additional constraints
0.2760000000	illumination variation
0.2760000000	measurement vector
0.2760000000	rigid motion
0.2760000000	computation complexity
0.2760000000	network flow
0.2760000000	semi dense
0.2760000000	visual genome
0.2760000000	two consecutive
0.2760000000	diagnostic reasoning
0.2760000000	hybrid approach
0.2760000000	remarkable improvements
0.2760000000	from real
0.2760000000	exponentially weighted
0.2760000000	domain to
0.2760000000	on par
0.2760000000	super pixels
0.2760000000	quadratic forms
0.2760000000	mr image
0.2760000000	the parametric
0.2760000000	main drawback
0.2760000000	existing literature
0.2760000000	the echo
0.2760000000	the abundance
0.2760000000	the formalism
0.2760000000	the singular
0.2760000000	the sense
0.2760000000	the sketch
0.2760000000	the rise
0.2760000000	the price
0.2760000000	the population
0.2760000000	the obtained
0.2760000000	the prior
0.2760000000	the examples
0.2760000000	the consistency
0.2760000000	urban scene
0.2760000000	approximate solution
0.2760000000	softmax layer
0.2760000000	using synthetic
0.2760000000	achieve similar
0.2760000000	score function
0.2760000000	attractive alternative
0.2760000000	positive and
0.2760000000	information conveyed
0.2760000000	earlier approaches
0.2760000000	laplacian regularization
0.2760000000	ontological knowledge
0.2760000000	means clustering
0.2760000000	kernel svms
0.2760000000	arbitrarily large
0.2760000000	communication costs
0.2760000000	of constraints
0.2760000000	particularly suitable
0.2760000000	hardness result
0.2760000000	substantial progress
0.2760000000	communication channel
0.2760000000	marginal inference
0.2760000000	privacy issues
0.2760000000	equivalence relations
0.2760000000	moderate size
0.2760000000	pilot study
0.2760000000	subjective nature
0.2760000000	directly optimizes
0.2760000000	generator network
0.2760000000	based registration
0.2760000000	recent innovations
0.2760000000	an experimental
0.2760000000	parameter estimates
0.2760000000	translation methods
0.2760000000	patient data
0.2760000000	cognitive tasks
0.2760000000	optimality guarantees
0.2760000000	approximately correct
0.2760000000	similarity functions
0.2760000000	spatiotemporal patterns
0.2760000000	boosting methods
0.2760000000	million frames
0.2760000000	abstract meaning
0.2760000000	handwritten documents
0.2760000000	labeled and
0.2760000000	overlapping group
0.2760000000	classification algorithm
0.2760000000	logic controller
0.2760000000	and word
0.2760000000	with neural
0.2760000000	object trajectories
0.2760000000	convolutional nets
0.2760000000	highest score
0.2760000000	a network
0.2760000000	imaging technique
0.2760000000	convolution and
0.2760000000	probability tables
0.2760000000	a tree
0.2760000000	a monocular
0.2760000000	weight storage
0.2760000000	r package
0.2760000000	a robotic
0.2760000000	convolution operators
0.2760000000	a question
0.2760000000	a multi
0.2760000000	imaging systems
0.2760000000	a genetic
0.2750000000	convolutional neural network cnn architecture for
0.2750000000	toolkit for neural machine translation
0.2750000000	many natural language processing tasks
0.2750000000	deep convolutional neural network for
0.2750000000	3d human pose estimation from
0.2750000000	real world data sets show
0.2750000000	the internet of things
0.2750000000	synthetic and real images
0.2750000000	lower and upper approximations
0.2750000000	lower and upper bounds
0.2750000000	neural network to classify
0.2750000000	neural network to detect
0.2750000000	range of real world
0.2750000000	the deep neural network
0.2750000000	branch and bound search
0.2750000000	the presence of noise
0.2750000000	experiments on real datasets
0.2750000000	bag of words model
0.2750000000	neural networks to model
0.2750000000	set of data points
0.2750000000	the log partition function
0.2750000000	qualitative and quantitative results
0.2750000000	the input data and
0.2750000000	quantitative and qualitative results
0.2750000000	qualitative and quantitative evaluations
0.2750000000	low power consumption
0.2750000000	the spectrum of
0.2750000000	a detailed analysis
0.2750000000	for facial landmark
0.2750000000	the attention of
0.2750000000	using support vector
0.2750000000	the full information
0.2750000000	attention based nmt
0.2750000000	of diophantine equations
0.2750000000	for high dimensional
0.2750000000	as much as
0.2750000000	the unlabeled data
0.2750000000	approximate inference algorithm
0.2750000000	model free methods
0.2750000000	multi agent domains
0.2750000000	a stationary point
0.2750000000	pre processing methods
0.2750000000	the history of
0.2750000000	resonance mr images
0.2750000000	multi view clustering
0.2750000000	online mirror descent
0.2750000000	word alignments
0.2750000000	model in
0.2750000000	stochastic learning
0.2750000000	thresholding method
0.2750000000	face completion
0.2750000000	policy space
0.2750000000	on adversarial
0.2750000000	mining algorithms
0.2750000000	ordinary least
0.2750000000	efficient graph
0.2750000000	the transformation
0.2750000000	the pixels
0.2750000000	y i
0.2750000000	the issues
0.2750000000	the person
0.2750000000	the classifier
0.2750000000	wise learning
0.2750000000	the cognitive
0.2750000000	made publicly
0.2750000000	the background
0.2750000000	the kronecker
0.2750000000	constrained local
0.2750000000	motion models
0.2750000000	field reconstruction
0.2750000000	semantic model
0.2750000000	clustering data
0.2750000000	of cognitive
0.2750000000	of spectral
0.2750000000	decision fusion
0.2750000000	level labels
0.2750000000	grammatical error
0.2750000000	class data
0.2750000000	class membership
0.2750000000	compressed images
0.2750000000	to serve
0.2750000000	an expectation
0.2750000000	an online
0.2750000000	input text
0.2750000000	uncertain reasoning
0.2750000000	dynamic graphs
0.2750000000	power systems
0.2750000000	agents with
0.2750000000	identification method
0.2750000000	theoretic perspective
0.2750000000	gaussian random
0.2750000000	neural generative
0.2750000000	classifier ensemble
0.2750000000	random binary
0.2750000000	networks in
0.2750000000	error signal
0.2750000000	gaussian model
0.2750000000	rank r
0.2750000000	a common
0.2750000000	a kernel
0.2750000000	in safety
0.2750000000	a widely
0.2740000000	low rank matrix completion and
0.2740000000	deep learning based approach for
0.2740000000	approach significantly outperforms state of
0.2740000000	proposed method achieves state of
0.2740000000	support vector machine svm and
0.2740000000	spatial and spectral information
0.2740000000	regression and classification tasks
0.2740000000	applied to large scale
0.2740000000	classification and regression tasks
0.2740000000	classification and regression problems
0.2740000000	regression and classification problems
0.2740000000	labeled data for training
0.2740000000	neural network to learn
0.2740000000	wide range of applications
0.2740000000	a deep learning model
0.2740000000	theoretical and empirical results
0.2740000000	low rank matrix approximation
0.2740000000	applied to real world
0.2740000000	computationally and statistically efficient
0.2740000000	compared to existing methods
0.2740000000	advances in artificial intelligence
0.2740000000	training of neural networks
0.2740000000	lack of training data
0.2740000000	experiments on real data
0.2740000000	problem in artificial intelligence
0.2740000000	semantics of logic programs
0.2740000000	feature extraction and classification
0.2740000000	vector representations of words
0.2740000000	color and texture features
0.2740000000	continuous and discrete variables
0.2740000000	in answer set programming
0.2740000000	presence of missing data
0.2740000000	era of big data
0.2740000000	terms of prediction accuracy
0.2740000000	number of training examples
0.2740000000	compared to previous methods
0.2740000000	compared to previous approaches
0.2740000000	pre trained on imagenet
0.2740000000	compared to previous works
0.2740000000	neural networks to learn
0.2740000000	unsupervised and semi supervised
0.2740000000	matrix completion and robust
0.2740000000	the nystr o m
0.2740000000	experiments on pascal voc
0.2740000000	algorithms with provable guarantees
0.2740000000	the gaussian mixture model
0.2740000000	theory of belief functions
0.2740000000	models for speech recognition
0.2740000000	the computational complexity of
0.2740000000	contrast to previous works
0.2740000000	object detection and segmentation
0.2740000000	image classification and retrieval
0.2740000000	problems in machine learning
0.2740000000	object detection and tracking
0.2740000000	vision and pattern recognition
0.2740000000	natural language instructions
0.2740000000	to sequence seq2seq
0.2740000000	hierarchical feature learning
0.2740000000	the registration of
0.2740000000	used to model
0.2740000000	human visual perception
0.2740000000	human face recognition
0.2740000000	the past decades
0.2740000000	simple and efficient
0.2740000000	the instances in
0.2740000000	the conditional distribution
0.2740000000	1 1 ea
0.2740000000	a given set
0.2740000000	a distance metric
0.2740000000	the activation function
0.2740000000	the concentration of
0.2740000000	hidden units in
0.2740000000	the 2 d
0.2740000000	spatio temporal data
0.2740000000	face recognition performance
0.2740000000	neural language model
0.2740000000	the coefficients of
0.2740000000	the logic of
0.2740000000	top 5 error
0.2740000000	domain adaptation techniques
0.2740000000	the outcome of
0.2740000000	the attributes of
0.2740000000	the topic of
0.2740000000	the embeddings of
0.2740000000	the expert s
0.2740000000	the color of
0.2740000000	epsilon 2 log
0.2740000000	the belief network
0.2740000000	a patient s
0.2740000000	deep network based
0.2740000000	supervised dimension reduction
0.2740000000	to end and
0.2740000000	then applied
0.2740000000	sampling and
0.2740000000	word tokens
0.2740000000	knowledge structures
0.2740000000	vector autoregressive
0.2740000000	preliminary report
0.2740000000	registration approach
0.2740000000	face retrieval
0.2740000000	image dependent
0.2740000000	dual decomposition
0.2740000000	supervised model
0.2740000000	distribution learning
0.2740000000	highway networks
0.2740000000	many practical
0.2740000000	quadratic loss
0.2740000000	the performances
0.2740000000	online fashion
0.2740000000	the web
0.2740000000	tracking task
0.2740000000	tracking method
0.2740000000	matrix representation
0.2740000000	the ideas
0.2740000000	the extent
0.2740000000	the occurrence
0.2740000000	the discriminative
0.2740000000	the history
0.2740000000	the scope
0.2740000000	the incremental
0.2740000000	the nonconvex
0.2740000000	information available
0.2740000000	urban environment
0.2740000000	local directional
0.2740000000	semantic descriptions
0.2740000000	private algorithms
0.2740000000	splitting method
0.2740000000	infinite latent
0.2740000000	an average
0.2740000000	based translation
0.2740000000	based brain
0.2740000000	to compensate
0.2740000000	to calculate
0.2740000000	syntactic structures
0.2740000000	poor quality
0.2740000000	large graph
0.2740000000	captioning model
0.2740000000	boolean networks
0.2740000000	enhancement algorithms
0.2740000000	clean data
0.2740000000	cluster labels
0.2740000000	nn classifier
0.2740000000	text streams
0.2740000000	and complexity
0.2740000000	and expensive
0.2740000000	temporal and
0.2740000000	a fuzzy
0.2740000000	function f
0.2730000000	the number of variables in
0.2730000000	principal component analysis pca and
0.2730000000	observable markov decision processes
0.2730000000	understanding of natural language
0.2730000000	an algorithm for learning
0.2730000000	training and test data
0.2730000000	person re identification re
0.2730000000	in mathbb r m
0.2730000000	image and video processing
0.2730000000	and part of speech
0.2730000000	the bayes risk
0.2730000000	used to generate
0.2730000000	the data distribution
0.2730000000	k means and
0.2730000000	monte carlo integration
0.2730000000	the kitti dataset
0.2730000000	recursive neural networks
0.2730000000	a mini batch
0.2730000000	l 1 regularization
0.2730000000	learning based methods
0.2730000000	take into consideration
0.2730000000	of spiking neurons
0.2730000000	in 3d space
0.2730000000	reinforcement learning methods
0.2730000000	the frame level
0.2730000000	the perspective of
0.2730000000	f score of
0.2730000000	n times n
0.2730000000	goal driven
0.2730000000	activation maps
0.2730000000	both single
0.2730000000	model construction
0.2730000000	distribution p
0.2730000000	rating matrix
0.2730000000	recovery guarantee
0.2730000000	derivative information
0.2730000000	biological data
0.2730000000	the encoder
0.2730000000	online health
0.2730000000	side views
0.2730000000	scoring rule
0.2730000000	globally consistent
0.2730000000	semantic relevance
0.2730000000	of similarity
0.2730000000	of tweets
0.2730000000	of labels
0.2730000000	evaluation function
0.2730000000	based query
0.2730000000	recent publications
0.2730000000	to neural
0.2730000000	uncertain environments
0.2730000000	adversarial inputs
0.2730000000	by comparing
0.2730000000	similarity transformation
0.2730000000	approximation methods
0.2730000000	temporal smoothness
0.2730000000	neural autoregressive
0.2730000000	minimal cost
0.2730000000	recurrent units
0.2730000000	with applications
0.2730000000	logic and
0.2730000000	without needing
0.2730000000	relu networks
0.2730000000	a previously
0.2730000000	in data
0.2730000000	a text
0.2730000000	a small
0.2730000000	document ranking
0.2730000000	transformed images
0.2720000000	the proposed algorithm performs favorably against
0.2720000000	neural network cnn architecture for
0.2720000000	the parameter space of
0.2720000000	in multi label classification
0.2720000000	classification and object detection
0.2720000000	compared with existing methods
0.2720000000	trained on large scale
0.2720000000	task of action recognition
0.2720000000	union of low dimensional
0.2720000000	stochastic gradient descent algorithm
0.2720000000	inference in graphical models
0.2720000000	low and high level
0.2720000000	multi scale and multi
0.2720000000	experiments with real world
0.2720000000	recent success of deep
0.2720000000	training of deep networks
0.2720000000	experiments on synthetic data
0.2720000000	based on gaussian processes
0.2720000000	massive amounts of data
0.2720000000	achieves significantly better performance
0.2720000000	number of training samples
0.2720000000	the source domain and
0.2720000000	an extensive experimental evaluation
0.2720000000	data and real world
0.2720000000	nystr o m method
0.2720000000	click through rate prediction
0.2720000000	for hyperspectral image classification
0.2720000000	experiments on large scale
0.2720000000	coding and dictionary learning
0.2720000000	important and challenging problem
0.2720000000	the nearest neighbor
0.2720000000	perceptual image quality
0.2720000000	a portfolio of
0.2720000000	the liver and
0.2720000000	the remote sensing
0.2720000000	causal discovery from
0.2720000000	active learning methods
0.2720000000	the arabic language
0.2720000000	the testing set
0.2720000000	robust matrix completion
0.2720000000	ground truth data
0.2720000000	the expansion of
0.2720000000	based classification methods
0.2720000000	learning distributed representations
0.2720000000	the hash codes
0.2720000000	the principle of
0.2720000000	the interaction of
0.2720000000	discrete latent variables
0.2720000000	a dissimilarity measure
0.2720000000	the l p
0.2720000000	the salient regions
0.2720000000	the pair wise
0.2720000000	agent reinforcement learning
0.2720000000	a multi modal
0.2720000000	low rank optimization
0.2720000000	the words in
0.2720000000	in multi agent
0.2720000000	causal effects in
0.2720000000	the correlation between
0.2720000000	many to many
0.2720000000	k log k
0.2720000000	bayesian optimization framework
0.2720000000	the origin of
0.2720000000	labels obtained
0.2720000000	sparse networks
0.2720000000	layer optimization
0.2720000000	recognition model
0.2720000000	prototype based
0.2720000000	user identification
0.2720000000	model distribution
0.2720000000	one approach
0.2720000000	word meaning
0.2720000000	resulting networks
0.2720000000	scale video
0.2720000000	registration of
0.2720000000	practical data
0.2720000000	best performing
0.2720000000	image correlation
0.2720000000	sequence dependent
0.2720000000	language specific
0.2720000000	language representations
0.2720000000	domain discrepancy
0.2720000000	dynamics model
0.2720000000	commonly adopted
0.2720000000	statistical knowledge
0.2720000000	statistical dependency
0.2720000000	research results
0.2720000000	set covering
0.2720000000	set theoretic
0.2720000000	set matching
0.2720000000	validation data
0.2720000000	deep super
0.2720000000	control systems
0.2720000000	artificial data
0.2720000000	test cost
0.2720000000	ml methods
0.2720000000	superpixel based
0.2720000000	annotated video
0.2720000000	regularized regression
0.2720000000	simulation model
0.2720000000	planning with
0.2720000000	the resource
0.2720000000	the mlp
0.2720000000	existing online
0.2720000000	the spatial
0.2720000000	the scene
0.2720000000	existing saliency
0.2720000000	score prediction
0.2720000000	memory model
0.2720000000	completion problems
0.2720000000	series prediction
0.2720000000	linear projection
0.2720000000	binary vectors
0.2720000000	learning library
0.2720000000	learning language
0.2720000000	causal modeling
0.2720000000	proposed estimators
0.2720000000	proposed saliency
0.2720000000	structure information
0.2720000000	learning hidden
0.2720000000	sgd algorithms
0.2720000000	decision model
0.2720000000	result implies
0.2720000000	semantic network
0.2720000000	semantic distance
0.2720000000	motion field
0.2720000000	cnn training
0.2720000000	spectral algorithm
0.2720000000	of rules
0.2720000000	complex word
0.2720000000	no spurious
0.2720000000	shape representation
0.2720000000	modular networks
0.2720000000	class distribution
0.2720000000	class semantic
0.2720000000	based color
0.2720000000	based conditional
0.2720000000	based acoustic
0.2720000000	based dissimilarity
0.2720000000	response functions
0.2720000000	based lstm
0.2720000000	taking place
0.2720000000	based measures
0.2720000000	data selection
0.2720000000	pose regression
0.2720000000	parameter optimization
0.2720000000	input parameters
0.2720000000	conversation data
0.2720000000	related languages
0.2720000000	success rates
0.2720000000	dynamic model
0.2720000000	character sequences
0.2720000000	exact solutions
0.2720000000	training videos
0.2720000000	target sentence
0.2720000000	multi start
0.2720000000	quality evaluation
0.2720000000	ensemble models
0.2720000000	ensemble techniques
0.2720000000	quality images
0.2720000000	approximation based
0.2720000000	risk function
0.2720000000	o epsilon
0.2720000000	emotion analysis
0.2720000000	circuit design
0.2720000000	classifier training
0.2720000000	computing methods
0.2720000000	gaussian scale
0.2720000000	bayesian additive
0.2720000000	label complexity
0.2720000000	predictive control
0.2720000000	convolutional and
0.2720000000	recurrent attention
0.2720000000	blind image
0.2720000000	n m
0.2720000000	temporal model
0.2720000000	neural semantic
0.2720000000	appearance information
0.2720000000	temporal sequences
0.2720000000	object in
0.2720000000	object specific
0.2720000000	object scene
0.2720000000	object model
0.2720000000	attribute learning
0.2720000000	appearance changes
0.2720000000	alpha 1
0.2720000000	design problem
0.2720000000	delta 1
0.2720000000	behavioral patterns
0.2720000000	reduced rank
0.2720000000	deterministic policies
0.2720000000	keypoint based
0.2720000000	a platform
0.2720000000	multiple source
0.2720000000	texture image
0.2720000000	problem domains
0.2720000000	without incurring
0.2720000000	output distribution
0.2720000000	spiking network
0.2710000000	adaptive neuro fuzzy inference system
0.2710000000	the stochastic block model
0.2710000000	term and long term
0.2710000000	in visual object tracking
0.2710000000	the speed of convergence
0.2710000000	artificial neural network based
0.2710000000	based sequence to sequence
0.2710000000	the error rate of
0.2710000000	the 3d pose of
0.2710000000	the number of training
0.2710000000	scale to large datasets
0.2710000000	the full information setting
0.2710000000	neural networks based on
0.2710000000	challenging pascal voc
0.2710000000	the immune system
0.2710000000	problems in machine
0.2710000000	the fitness of
0.2710000000	covariance matrix estimation
0.2710000000	english translation task
0.2710000000	the audio signal
0.2710000000	layered neural networks
0.2710000000	a machine translation
0.2710000000	the vector of
0.2710000000	the power law
0.2710000000	extensive empirical studies
0.2710000000	conversational speech recognition
0.2710000000	these results suggest
0.2710000000	the hessian of
0.2710000000	the reliability of
0.2710000000	a fine grained
0.2710000000	for object recognition
0.2710000000	based object detection
0.2710000000	root cause analysis
0.2710000000	recognition algorithms
0.2710000000	objective problems
0.2710000000	expressive description
0.2710000000	dl methods
0.2710000000	reasoning capabilities
0.2710000000	domain mismatch
0.2710000000	strongly supervised
0.2710000000	great flexibility
0.2710000000	provably consistent
0.2710000000	on benchmark
0.2710000000	beta 1
0.2710000000	the left
0.2710000000	the skeleton
0.2710000000	softmax classifier
0.2710000000	uncertainty based
0.2710000000	descent methods
0.2710000000	programming algorithm
0.2710000000	using state
0.2710000000	of sgd
0.2710000000	of discourse
0.2710000000	polarity classification
0.2710000000	subspace segmentation
0.2710000000	misclassification error
0.2710000000	shape retrieval
0.2710000000	conditional log
0.2710000000	syntactic dependency
0.2710000000	g v
0.2710000000	lr image
0.2710000000	by explicitly
0.2710000000	dataset called
0.2710000000	biomedical information
0.2710000000	finite sets
0.2710000000	text length
0.2710000000	and text
0.2710000000	object representation
0.2710000000	gamma 2
0.2710000000	increasing availability
0.2710000000	rank structure
0.2710000000	road scene
0.2710000000	r 2
0.2710000000	fuzzy classification
0.2710000000	probability logic
0.2710000000	formally prove
0.2710000000	medical information
0.2700000000	the proposed approach significantly outperforms
0.2700000000	based end to end
0.2700000000	for multi object tracking
0.2700000000	lstm recurrent neural networks
0.2700000000	parallel stochastic gradient descent
0.2700000000	object detection and semantic
0.2700000000	the hierarchical dirichlet process
0.2700000000	generic object detection
0.2700000000	the communication cost
0.2700000000	hyperspectral image analysis
0.2700000000	the color and
0.2700000000	constraint logic programming
0.2700000000	the runtime of
0.2700000000	sparse coding algorithms
0.2700000000	low rank modeling
0.2700000000	the development of
0.2700000000	the distance of
0.2700000000	the expression of
0.2700000000	deep networks trained
0.2700000000	word embedding models
0.2700000000	hybrid evolutionary algorithm
0.2700000000	semi supervised methods
0.2700000000	word embedding model
0.2700000000	gating network
0.2700000000	english translation
0.2700000000	bandit model
0.2700000000	major contributions
0.2700000000	this function
0.2700000000	this general
0.2700000000	agent models
0.2700000000	ranking functions
0.2700000000	three steps
0.2700000000	convex problem
0.2700000000	image models
0.2700000000	face pose
0.2700000000	competitive learning
0.2700000000	convex losses
0.2700000000	image gradient
0.2700000000	visual inputs
0.2700000000	background separation
0.2700000000	dimensional tensor
0.2700000000	negative images
0.2700000000	suited for
0.2700000000	spatial patterns
0.2700000000	order logical
0.2700000000	view clustering
0.2700000000	svm approach
0.2700000000	for video
0.2700000000	development set
0.2700000000	svm model
0.2700000000	partitioning algorithm
0.2700000000	x x
0.2700000000	process control
0.2700000000	service based
0.2700000000	algorithmic probability
0.2700000000	em segmentation
0.2700000000	improving object
0.2700000000	the planning
0.2700000000	the weak
0.2700000000	the inclusion
0.2700000000	the parameter
0.2700000000	propagation based
0.2700000000	the spectrum
0.2700000000	the residual
0.2700000000	the phrase
0.2700000000	online dictionary
0.2700000000	the tuning
0.2700000000	learning capacity
0.2700000000	standard algorithm
0.2700000000	memory module
0.2700000000	small regret
0.2700000000	minimization methods
0.2700000000	feature layers
0.2700000000	popular feature
0.2700000000	local convolutional
0.2700000000	topic distribution
0.2700000000	inverse classification
0.2700000000	semantic based
0.2700000000	clustering scheme
0.2700000000	complexity measure
0.2700000000	sat based
0.2700000000	topic word
0.2700000000	definite kernel
0.2700000000	alignment models
0.2700000000	general logic
0.2700000000	topic based
0.2700000000	shape constraints
0.2700000000	volume data
0.2700000000	rl based
0.2700000000	qualitative decision
0.2700000000	class level
0.2700000000	parsing framework
0.2700000000	data storage
0.2700000000	data description
0.2700000000	class based
0.2700000000	an additional
0.2700000000	real user
0.2700000000	input matrices
0.2700000000	projection onto
0.2700000000	tomography images
0.2700000000	selection methodology
0.2700000000	identification methods
0.2700000000	range based
0.2700000000	target task
0.2700000000	sparsity model
0.2700000000	shift problem
0.2700000000	ever increasing
0.2700000000	russian language
0.2700000000	gaussian component
0.2700000000	nn based
0.2700000000	synthetic medical
0.2700000000	random networks
0.2700000000	networks convolutional
0.2700000000	text annotations
0.2700000000	object models
0.2700000000	temporal representations
0.2700000000	n dimensional
0.2700000000	and 3d
0.2700000000	object relationships
0.2700000000	fuzzy approach
0.2700000000	function optimization
0.2700000000	a translation
0.2700000000	segmentation of
0.2700000000	convolution operator
0.2700000000	medical knowledge
0.2700000000	d numbers
0.2700000000	design patterns
0.2690000000	the dempster shafer theory of
0.2690000000	in reproducing kernel hilbert spaces
0.2690000000	the proposed algorithm performs favorably
0.2690000000	the convolutional neural network cnn
0.2690000000	short term memory lstm and
0.2690000000	a deep learning based approach
0.2690000000	a deep learning based method
0.2690000000	code and trained models
0.2690000000	amounts of labeled data
0.2690000000	real world time series
0.2690000000	low rank and sparse
0.2690000000	exact and approximate inference
0.2690000000	performance and energy efficiency
0.2690000000	high dimensional time series
0.2690000000	classification and semantic segmentation
0.2690000000	networks of spiking neurons
0.2690000000	labeled and unlabeled data
0.2690000000	accuracy and computational efficiency
0.2690000000	free and model based
0.2690000000	linear non gaussian acyclic
0.2690000000	distributed representations of words
0.2690000000	real time strategy games
0.2690000000	distributed representation of words
0.2690000000	generalized zero shot learning
0.2690000000	classification of hyperspectral images
0.2690000000	based on gibbs sampling
0.2690000000	based on supervised learning
0.2690000000	based on hand crafted
0.2690000000	detection and semantic segmentation
0.2690000000	method of multipliers admm
0.2690000000	a large data set
0.2690000000	segmentation and object detection
0.2690000000	based on machine learning
0.2690000000	number of trainable parameters
0.2690000000	experiments on benchmark datasets
0.2690000000	based on neural networks
0.2690000000	based on matrix factorization
0.2690000000	based on reinforcement learning
0.2690000000	np hard in general
0.2690000000	based on genetic algorithms
0.2690000000	lead to poor performance
0.2690000000	based on neural network
0.2690000000	polynomial time approximation scheme
0.2690000000	class of probabilistic models
0.2690000000	based on generative adversarial
0.2690000000	based on deep learning
0.2690000000	number of model parameters
0.2690000000	recent successes of deep
0.2690000000	binary and multi class
0.2690000000	leads to significant improvements
0.2690000000	number of hidden units
0.2690000000	terms of classification accuracy
0.2690000000	real world and synthetic
0.2690000000	chinese to english translation
0.2690000000	number of free parameters
0.2690000000	number of function evaluations
0.2690000000	signal and image processing
0.2690000000	based on mutual information
0.2690000000	based on fuzzy logic
0.2690000000	smooth and strongly convex
0.2690000000	number of fitness evaluations
0.2690000000	deep q network dqn
0.2690000000	number of false positives
0.2690000000	publicly available benchmark datasets
0.2690000000	terms of solution quality
0.2690000000	publicly available data sets
0.2690000000	real and simulated data
0.2690000000	the compact genetic algorithm
0.2690000000	real time object detection
0.2690000000	amounts of training data
0.2690000000	sparse and low rank
0.2690000000	used to represent
0.2690000000	kernel k means
0.2690000000	an effective method
0.2690000000	with application to
0.2690000000	based image compression
0.2690000000	an accuracy of
0.2690000000	the regression problem
0.2690000000	the focus of
0.2690000000	the convergence rates
0.2690000000	the youtube 8m
0.2690000000	the role of
0.2690000000	the pre trained
0.2690000000	the acoustic model
0.2690000000	for markov decision
0.2690000000	knowledge elicitation
0.2690000000	depth sensor
0.2690000000	depth cues
0.2690000000	energy storage
0.2690000000	tree models
0.2690000000	bounded regret
0.2690000000	wavelet decomposition
0.2690000000	variants of
0.2690000000	3d cnns
0.2690000000	game ai
0.2690000000	node represents
0.2690000000	labeling tasks
0.2690000000	for chinese
0.2690000000	subsets of
0.2690000000	the independence
0.2690000000	the beta
0.2690000000	ner systems
0.2690000000	the vqa
0.2690000000	the integrand
0.2690000000	the spectral
0.2690000000	the driver
0.2690000000	the ladder
0.2690000000	approximate reasoning
0.2690000000	standard arabic
0.2690000000	proof theory
0.2690000000	linear learning
0.2690000000	causal effect
0.2690000000	attack methods
0.2690000000	inverse dynamics
0.2690000000	human observer
0.2690000000	of attention
0.2690000000	subjective quality
0.2690000000	semidefinite matrix
0.2690000000	real word
0.2690000000	data on
0.2690000000	based rl
0.2690000000	membership function
0.2690000000	f 0
0.2690000000	agents in
0.2690000000	current status
0.2690000000	soft q
0.2690000000	networks and
0.2690000000	rank one
0.2690000000	a major
0.2690000000	a relational
0.2690000000	in learning
0.2690000000	r cnn
0.2690000000	rapid increase
0.2680000000	a deep convolutional neural network dcnn
0.2680000000	and support vector machine svm
0.2680000000	in natural language processing nlp
0.2680000000	the field of computer vision
0.2680000000	for content based image retrieval
0.2680000000	well founded semantics for
0.2680000000	the art results in
0.2680000000	state of art results
0.2680000000	the cifar 10 dataset
0.2680000000	a sound and complete
0.2680000000	number of training data
0.2680000000	many applications such as
0.2680000000	the minimum number of
0.2680000000	a bottom up
0.2680000000	the policy space
0.2680000000	one to one
0.2680000000	this paper reports
0.2680000000	graph neural networks
0.2680000000	the central idea
0.2680000000	the random forest
0.2680000000	in social media
0.2680000000	the convolutional layers
0.2680000000	for remote sensing
0.2680000000	a type of
0.2680000000	the mean square
0.2680000000	an increase in
0.2680000000	a kind of
0.2680000000	the challenge of
0.2680000000	the decision tree
0.2680000000	better results than
0.2680000000	known in advance
0.2680000000	the probabilities of
0.2680000000	learning bayesian network
0.2680000000	nonparametric mixture models
0.2680000000	word counts
0.2680000000	layer resnet
0.2680000000	agnostic setting
0.2680000000	upper body
0.2680000000	clinical experts
0.2680000000	rapidly increasing
0.2680000000	mobile platform
0.2680000000	activation units
0.2680000000	kitti benchmark
0.2680000000	grained sentiment
0.2680000000	this measure
0.2680000000	finitely many
0.2680000000	this space
0.2680000000	future developments
0.2680000000	tree induction
0.2680000000	program learning
0.2680000000	ct imaging
0.2680000000	image editing
0.2680000000	processes gp
0.2680000000	network snn
0.2680000000	question arises
0.2680000000	algorithms eas
0.2680000000	two loss
0.2680000000	gradient vanishing
0.2680000000	gray images
0.2680000000	deformable objects
0.2680000000	threat detection
0.2680000000	line segment
0.2680000000	the cascade
0.2680000000	most notably
0.2680000000	the distributional
0.2680000000	the decoder
0.2680000000	planning method
0.2680000000	l2 loss
0.2680000000	slightly lower
0.2680000000	intermediate steps
0.2680000000	linear manifold
0.2680000000	vanishing gradient
0.2680000000	standard dataset
0.2680000000	nonsmooth optimization
0.2680000000	information diffusion
0.2680000000	learning phase
0.2680000000	siamese architecture
0.2680000000	of document
0.2680000000	general optimization
0.2680000000	level and
0.2680000000	decision models
0.2680000000	state transducer
0.2680000000	ant system
0.2680000000	definite programming
0.2680000000	automatically detects
0.2680000000	compression algorithms
0.2680000000	data in
0.2680000000	recent interest
0.2680000000	broad categories
0.2680000000	chemical properties
0.2680000000	mild conditions
0.2680000000	digital cameras
0.2680000000	mathematical expressions
0.2680000000	agents to
0.2680000000	agents and
0.2680000000	log partition
0.2680000000	likelihood estimators
0.2680000000	translation and
0.2680000000	locally connected
0.2680000000	biomedical literature
0.2680000000	pu learning
0.2680000000	text fragments
0.2680000000	normal forms
0.2680000000	principled manner
0.2680000000	common pool
0.2680000000	probabilistic argumentation
0.2680000000	road users
0.2680000000	cross age
0.2670000000	a bidirectional long short term memory
0.2670000000	a markov chain monte carlo mcmc
0.2670000000	a partially observable markov decision process
0.2670000000	a long short term memory lstm
0.2670000000	a support vector machine svm
0.2670000000	a feed forward neural network
0.2670000000	for large scale machine learning
0.2670000000	the reproducing kernel hilbert space
0.2670000000	the support vector machine svm
0.2670000000	a multi armed bandit problem
0.2670000000	the human visual system
0.2670000000	in order to maximize
0.2670000000	a source domain to
0.2670000000	the 3d shape of
0.2670000000	the recent years
0.2670000000	to reason about
0.2670000000	taking into consideration
0.2670000000	the differences between
0.2670000000	acoustic word embeddings
0.2670000000	the area under
0.2670000000	high dimensional spaces
0.2670000000	an empirical comparison
0.2670000000	unsupervised feature selection
0.2670000000	a reinforcement learning
0.2670000000	the privacy of
0.2670000000	the instance level
0.2670000000	simulation results demonstrate
0.2670000000	the outputs of
0.2670000000	the expected number
0.2670000000	the optimal rate
0.2670000000	a notion of
0.2670000000	the wide variety
0.2670000000	the derivative of
0.2670000000	x y z
0.2670000000	the proposed algorithms
0.2670000000	a long time
0.2670000000	the forward model
0.2670000000	more effective than
0.2670000000	the nodes in
0.2670000000	the pixel level
0.2670000000	the sizes of
0.2670000000	the embedding of
0.2670000000	the subject of
0.2670000000	a power law
0.2670000000	the new model
0.2670000000	networks as well
0.2670000000	structure discovery in
0.2670000000	at training time
0.2670000000	long term tracking
0.2670000000	the adjacency matrix
0.2670000000	this kind of
0.2670000000	variant adaptive
0.2670000000	sentence selection
0.2670000000	model prediction
0.2670000000	technical contribution
0.2670000000	sequence data
0.2670000000	traditional text
0.2670000000	image distortions
0.2670000000	hand drawn
0.2670000000	underlying manifold
0.2670000000	geographic information
0.2670000000	reliably identify
0.2670000000	cumulative distribution
0.2670000000	leq n
0.2670000000	matrix of
0.2670000000	signal and
0.2670000000	discriminative approaches
0.2670000000	the fused
0.2670000000	the elastic
0.2670000000	languages such
0.2670000000	using real
0.2670000000	generating realistic
0.2670000000	human labor
0.2670000000	reconstruction loss
0.2670000000	received little
0.2670000000	step approach
0.2670000000	multi stream
0.2670000000	quality metric
0.2670000000	by jointly
0.2670000000	relations and
0.2670000000	large and
0.2670000000	entity type
0.2670000000	and recognition
0.2670000000	probabilistic interpretations
0.2670000000	analysis techniques
0.2670000000	segmentation models
0.2670000000	without resorting
0.2670000000	a scale
0.2670000000	a rate
0.2670000000	handling missing
0.2660000000	a reproducing kernel hilbert space rkhs
0.2660000000	end to end text
0.2660000000	used in conjunction with
0.2660000000	the information content of
0.2660000000	a context free grammar
0.2660000000	the data points and
0.2660000000	a time series of
0.2660000000	the manifold structure of
0.2660000000	the maximum number of
0.2660000000	an average error of
0.2660000000	propose and analyze
0.2660000000	the limitations of
0.2660000000	computer vision tasks
0.2660000000	mixture models gmms
0.2660000000	monte carlo simulations
0.2660000000	the age of
0.2660000000	for machine comprehension
0.2660000000	a distribution over
0.2660000000	a new paradigm
0.2660000000	and so on
0.2660000000	same or different
0.2660000000	a study of
0.2660000000	i 1 n
0.2660000000	relational learning srl
0.2660000000	variational bayesian inference
0.2660000000	techniques as well
0.2660000000	the intrinsic dimension
0.2660000000	a bound on
0.2660000000	drawn much attention
0.2660000000	multi view stereo
0.2660000000	a logic for
0.2660000000	the early stages
0.2660000000	neural network policies
0.2660000000	neural network ann
0.2660000000	an important step
0.2660000000	sentence descriptions
0.2660000000	web technologies
0.2660000000	desirable property
0.2660000000	naturally extends
0.2660000000	learned skills
0.2660000000	sentence retrieval
0.2660000000	ambiguous words
0.2660000000	convnet architecture
0.2660000000	knowledge sharing
0.2660000000	word lists
0.2660000000	geometrical properties
0.2660000000	raw depth
0.2660000000	image manipulation
0.2660000000	person retrieval
0.2660000000	3d shapes
0.2660000000	convex surrogate
0.2660000000	neighborhood relations
0.2660000000	frequency details
0.2660000000	labeling effort
0.2660000000	efficient online
0.2660000000	cumulative loss
0.2660000000	autonomous mobile
0.2660000000	main drawbacks
0.2660000000	the medical
0.2660000000	dcf based
0.2660000000	the relational
0.2660000000	the linguistic
0.2660000000	the measurement
0.2660000000	main conclusion
0.2660000000	m n
0.2660000000	rule bases
0.2660000000	sensitive attribute
0.2660000000	encoding and
0.2660000000	joint positions
0.2660000000	obtains competitive
0.2660000000	sgd and
0.2660000000	hessian matrix
0.2660000000	programming formulations
0.2660000000	series expansion
0.2660000000	true false
0.2660000000	semantic spaces
0.2660000000	human joints
0.2660000000	method takes
0.2660000000	of intelligence
0.2660000000	of concepts
0.2660000000	structural mri
0.2660000000	sensor nodes
0.2660000000	structural equations
0.2660000000	ex post
0.2660000000	based solutions
0.2660000000	an epsilon
0.2660000000	to mathbb
0.2660000000	perceived quality
0.2660000000	resource bounded
0.2660000000	scientific discovery
0.2660000000	gives rise
0.2660000000	computational and
0.2660000000	optimal arm
0.2660000000	greedy heuristic
0.2660000000	pixel intensity
0.2660000000	minimal effort
0.2660000000	compositional semantics
0.2660000000	asymptotic consistency
0.2660000000	security critical
0.2660000000	hierarchical organization
0.2660000000	r n
0.2660000000	increasing demand
0.2660000000	pseudo labels
0.2660000000	crowdsourcing systems
0.2650000000	the minimum description length mdl principle
0.2650000000	experiments on synthetic and real data
0.2650000000	and real world data demonstrate
0.2650000000	a markov random field mrf
0.2650000000	a directed acyclic graph dag
0.2650000000	a fully convolutional neural network
0.2650000000	the art deep learning models
0.2650000000	a multi layer perceptron mlp
0.2650000000	end to end models
0.2650000000	a machine translation system
0.2650000000	of deep learning in
0.2650000000	the expected value of
0.2650000000	amount of data
0.2650000000	a connection between
0.2650000000	code and models
0.2650000000	the goal of
0.2650000000	bayesian network bn
0.2650000000	this paper focuses
0.2650000000	classification or regression
0.2650000000	rule of combination
0.2650000000	phrases and sentences
0.2650000000	rotation and scale
0.2650000000	on grassmann manifolds
0.2650000000	words or phrases
0.2650000000	convolutional and recurrent
0.2650000000	very large datasets
0.2650000000	appearance and motion
0.2650000000	a significant improvement
0.2650000000	online and batch
0.2650000000	lloyd s algorithm
0.2650000000	tools and techniques
0.2650000000	english and chinese
0.2650000000	a model based
0.2650000000	between source and
0.2650000000	takes into consideration
0.2650000000	in computed tomography
0.2650000000	the ranking of
0.2650000000	the affinity matrix
0.2650000000	results also suggest
0.2650000000	path planning problem
0.2650000000	batch and online
0.2650000000	edge of chaos
0.2650000000	a neural machine
0.2650000000	fails to converge
0.2650000000	locations and scales
0.2650000000	questions and answers
0.2650000000	single and multiple
0.2650000000	uncertain and incomplete
0.2650000000	task at hand
0.2650000000	in response to
0.2650000000	synthetic to real
0.2650000000	much larger than
0.2650000000	branch and cut
0.2650000000	large and complex
0.2650000000	current and future
0.2650000000	objective and subjective
0.2650000000	flexible enough
0.2650000000	heterogeneous knowledge
0.2650000000	inception network
0.2650000000	norm and
0.2650000000	virtual environments
0.2650000000	network pruning
0.2650000000	image contents
0.2650000000	different aspects
0.2650000000	image space
0.2650000000	language instructions
0.2650000000	order optimization
0.2650000000	for support
0.2650000000	quadratic function
0.2650000000	inference model
0.2650000000	map estimate
0.2650000000	the intersection
0.2650000000	the nonlinear
0.2650000000	x n
0.2650000000	reasonable assumptions
0.2650000000	the questions
0.2650000000	systems to
0.2650000000	the ml
0.2650000000	coordinate frame
0.2650000000	the consensus
0.2650000000	switching linear
0.2650000000	sgd algorithm
0.2650000000	of graphs
0.2650000000	paper revisits
0.2650000000	of action
0.2650000000	unification based
0.2650000000	transition probability
0.2650000000	proven successful
0.2650000000	class prior
0.2650000000	inducing points
0.2650000000	cover problem
0.2650000000	fusion model
0.2650000000	uniform convergence
0.2650000000	similarity measurement
0.2650000000	square error
0.2650000000	additive model
0.2650000000	subset of
0.2650000000	temporal modeling
0.2650000000	temporal abstraction
0.2650000000	a newly
0.2640000000	a generative adversarial network gan
0.2640000000	for skeleton based action recognition
0.2640000000	non strongly convex problems
0.2640000000	neural machine translation systems
0.2640000000	pose and expression
0.2640000000	spectral and spatial
0.2640000000	effectively and efficiently
0.2640000000	of alzheimer s
0.2640000000	an expert system
0.2640000000	simple but effective
0.2640000000	the data and
0.2640000000	based learning algorithms
0.2640000000	sparse additive models
0.2640000000	with missing data
0.2640000000	the grammar and
0.2640000000	the speed and
0.2640000000	detecting and classifying
0.2640000000	rotation and scaling
0.2640000000	the amount of
0.2640000000	storage and retrieval
0.2640000000	achieves better accuracy
0.2640000000	a utility function
0.2640000000	receptive field size
0.2640000000	german and english
0.2640000000	much smaller than
0.2640000000	past and future
0.2640000000	the road network
0.2640000000	the effects of
0.2640000000	single or multiple
0.2640000000	learn useful representations
0.2640000000	nodes and edges
0.2640000000	visualizing and understanding
0.2640000000	local search methods
0.2640000000	neuro fuzzy model
0.2640000000	translation and rotation
0.2640000000	theoretical and experimental
0.2640000000	the understanding of
0.2640000000	the efficiency of
0.2640000000	accurately and efficiently
0.2640000000	image or video
0.2640000000	stuck in local
0.2640000000	scalable to large
0.2640000000	computational and statistical
0.2640000000	the effectiveness and
0.2640000000	applications ranging from
0.2640000000	sparse decomposition
0.2640000000	adaptive data
0.2640000000	additional samples
0.2640000000	this distribution
0.2640000000	word identification
0.2640000000	boltzmann distribution
0.2640000000	generative approach
0.2640000000	parts and
0.2640000000	stochastic matrix
0.2640000000	stochastic variables
0.2640000000	p n
0.2640000000	resolution methods
0.2640000000	view face
0.2640000000	module and
0.2640000000	grayscale image
0.2640000000	for link
0.2640000000	hard constraints
0.2640000000	posterior approximation
0.2640000000	the descriptor
0.2640000000	the position
0.2640000000	the structures
0.2640000000	the sentences
0.2640000000	partitioning problem
0.2640000000	online adaptive
0.2640000000	classes and
0.2640000000	recall rates
0.2640000000	cost models
0.2640000000	continuous time
0.2640000000	local models
0.2640000000	query language
0.2640000000	proposed strategy
0.2640000000	interaction network
0.2640000000	local texture
0.2640000000	dense 3d
0.2640000000	global pooling
0.2640000000	auxiliary variable
0.2640000000	of cnn
0.2640000000	an n
0.2640000000	pose information
0.2640000000	data protection
0.2640000000	tasks such
0.2640000000	features to
0.2640000000	images of
0.2640000000	reference set
0.2640000000	and dictionary
0.2640000000	probabilistic framework
0.2640000000	programs and
0.2640000000	phrase structure
0.2640000000	imaging features
0.2640000000	a phrase
0.2640000000	a program
0.2640000000	vehicle speed
0.2630000000	extensive experiments on synthetic and real
0.2630000000	experiments on synthetic and real world
0.2630000000	of symmetric positive definite matrices
0.2630000000	experimental results on three benchmark
0.2630000000	sample complexity of learning
0.2630000000	the main goal of
0.2630000000	a detailed analysis of
0.2630000000	a fundamental problem in
0.2630000000	the signal of interest
0.2630000000	a probability distribution over
0.2630000000	uncertainty in artificial intelligence
0.2630000000	a large set of
0.2630000000	a first step towards
0.2630000000	the discriminative power of
0.2630000000	a union of subspaces
0.2630000000	a new type of
0.2630000000	a general framework for
0.2630000000	synthetic data and real
0.2630000000	no regret learning
0.2630000000	an increasing interest
0.2630000000	to distinguish between
0.2630000000	maximum likelihood ml
0.2630000000	the fields of
0.2630000000	a bag of
0.2630000000	strengths and limitations
0.2630000000	continuous and discrete
0.2630000000	software and hardware
0.2630000000	designed and implemented
0.2630000000	theoretically and experimentally
0.2630000000	human and machine
0.2630000000	parallel and distributed
0.2630000000	the interplay between
0.2630000000	syntax and semantics
0.2630000000	node and edge
0.2630000000	evaluating and comparing
0.2630000000	online learning algorithm
0.2630000000	a lack of
0.2630000000	science and technology
0.2630000000	rotation and translation
0.2630000000	recurrent and convolutional
0.2630000000	missing at random
0.2630000000	nash equilibria in
0.2630000000	detect and recognize
0.2630000000	detect and track
0.2630000000	detect and localize
0.2630000000	deep and wide
0.2630000000	the likelihood function
0.2630000000	empirical and theoretical
0.2630000000	of great interest
0.2630000000	efficiently and effectively
0.2630000000	shapes and sizes
0.2630000000	a mapping from
0.2630000000	online and offline
0.2630000000	ease of implementation
0.2630000000	collected and annotated
0.2630000000	question and answer
0.2630000000	experimental results confirm
0.2630000000	whole slide images
0.2630000000	lines of code
0.2630000000	case by case
0.2630000000	pre and post
0.2630000000	regression or classification
0.2630000000	the building block
0.2630000000	both continuous and
0.2630000000	the degree to
0.2630000000	type i error
0.2630000000	scientific and engineering
0.2630000000	analysis by synthesis
0.2630000000	speech recognition systems
0.2630000000	the 3 d
0.2630000000	music information retrieval
0.2630000000	an introduction to
0.2630000000	the art object
0.2630000000	approach clearly outperforms
0.2630000000	the normalized cut
0.2630000000	clinical diagnosis
0.2630000000	recognition of
0.2630000000	virtual agents
0.2630000000	heterogeneous sources
0.2630000000	practical significance
0.2630000000	unsupervised adaptation
0.2630000000	corrupted samples
0.2630000000	answering queries
0.2630000000	single parameter
0.2630000000	algorithms require
0.2630000000	visual grounding
0.2630000000	systematically investigate
0.2630000000	prior beliefs
0.2630000000	two fold
0.2630000000	processes with
0.2630000000	varies significantly
0.2630000000	contextual dependencies
0.2630000000	underlying subspaces
0.2630000000	research direction
0.2630000000	control points
0.2630000000	synthesis methods
0.2630000000	for depth
0.2630000000	for edge
0.2630000000	set function
0.2630000000	mcmc scheme
0.2630000000	feedback control
0.2630000000	main novelty
0.2630000000	the mobile
0.2630000000	difficult problems
0.2630000000	the biomedical
0.2630000000	the communication
0.2630000000	theoretically motivated
0.2630000000	the dynamic
0.2630000000	process pomdp
0.2630000000	the partial
0.2630000000	the factors
0.2630000000	feedback connections
0.2630000000	morphable model
0.2630000000	called emph
0.2630000000	modulus method
0.2630000000	programming gp
0.2630000000	query image
0.2630000000	rule extraction
0.2630000000	proposed neural
0.2630000000	fourth order
0.2630000000	context based
0.2630000000	local context
0.2630000000	memory overhead
0.2630000000	learning step
0.2630000000	local regions
0.2630000000	learning causal
0.2630000000	small portion
0.2630000000	binary descriptor
0.2630000000	mutation and
0.2630000000	arbitrarily long
0.2630000000	motion dynamics
0.2630000000	discrimination power
0.2630000000	more sophisticated
0.2630000000	human eyes
0.2630000000	of n
0.2630000000	of region
0.2630000000	empirically validated
0.2630000000	neuromorphic architecture
0.2630000000	multiview learning
0.2630000000	population sizes
0.2630000000	based upon
0.2630000000	data size
0.2630000000	recent attempts
0.2630000000	to transfer
0.2630000000	broad family
0.2630000000	world dataset
0.2630000000	ir tasks
0.2630000000	solve problems
0.2630000000	cover mapping
0.2630000000	external resources
0.2630000000	applied mathematics
0.2630000000	current trend
0.2630000000	key points
0.2630000000	exact bayesian
0.2630000000	residual block
0.2630000000	valuable tool
0.2630000000	closed categories
0.2630000000	predictive features
0.2630000000	and instance
0.2630000000	a radial
0.2630000000	accurately recover
0.2630000000	imaging mri
0.2630000000	fundamental limits
0.2630000000	rgb color
0.2630000000	distributed memory
0.2630000000	1 n
0.2630000000	in recent
0.2630000000	tight bound
0.2630000000	surrounding context
0.2630000000	percentage error
0.2620000000	the covariance matrix adaptation evolution strategy
0.2620000000	in recent years deep neural networks
0.2620000000	a pre trained convolutional neural network
0.2620000000	the gaussian process latent variable model
0.2620000000	the art machine learning algorithms
0.2620000000	the proposed approach significantly improves
0.2620000000	experiments on several real world
0.2620000000	for training deep neural networks
0.2620000000	mnist and cifar 10 datasets
0.2620000000	the art deep neural networks
0.2620000000	to train deep neural networks
0.2620000000	the art convolutional neural networks
0.2620000000	a conditional random field crf
0.2620000000	in recent years deep learning
0.2620000000	the proposed method significantly improves
0.2620000000	the restricted boltzmann machine rbm
0.2620000000	a hidden markov model hmm
0.2620000000	the proposed method significantly outperforms
0.2620000000	a gaussian mixture model gmm
0.2620000000	a deep recurrent neural network
0.2620000000	the minimum description length principle
0.2620000000	the uci machine learning repository
0.2620000000	a crucial role in
0.2620000000	the deep learning based
0.2620000000	a small amount of
0.2620000000	in order to increase
0.2620000000	the most commonly used
0.2620000000	an important problem in
0.2620000000	deep recurrent neural networks
0.2620000000	neural sequence to sequence
0.2620000000	a modified version of
0.2620000000	the main objective of
0.2620000000	the computational cost of
0.2620000000	a theoretical analysis of
0.2620000000	the fully convolutional network
0.2620000000	non convex loss functions
0.2620000000	natural language based
0.2620000000	the huge amount
0.2620000000	the intersection of
0.2620000000	sparse and dense
0.2620000000	the spirit of
0.2620000000	object detection and
0.2620000000	a note on
0.2620000000	structured and unstructured
0.2620000000	using particle swarm
0.2620000000	a controlled natural
0.2620000000	monte carlo simulation
0.2620000000	the tradeoff between
0.2620000000	a spatial temporal
0.2620000000	the aid of
0.2620000000	english german translation
0.2620000000	become more and
0.2620000000	the contributions of
0.2620000000	images or videos
0.2620000000	penalized maximum likelihood
0.2620000000	the support vector
0.2620000000	the target distribution
0.2620000000	the fully convolutional
0.2620000000	a preprocessing step
0.2620000000	expensive black box
0.2620000000	a deep convolutional
0.2620000000	the hierarchical structure
0.2620000000	the black box
0.2620000000	deep q learning
0.2620000000	self taught learning
0.2620000000	distributed online learning
0.2620000000	a study on
0.2620000000	deep learning applications
0.2620000000	first and second
0.2620000000	the sentence level
0.2620000000	world and synthetic
0.2620000000	learning based method
0.2620000000	for semantic segmentation
0.2620000000	the max margin
0.2620000000	the expense of
0.2620000000	experimental results suggest
0.2620000000	the rapid development
0.2620000000	the determination of
0.2620000000	satellite image classification
0.2620000000	the rise of
0.2620000000	work well in
0.2620000000	open source toolkit
0.2620000000	on several datasets
0.2620000000	the score of
0.2620000000	both spatial and
0.2620000000	discriminative and generative
0.2620000000	large scale training
0.2620000000	face to face
0.2620000000	the correctness of
0.2620000000	the expectation of
0.2620000000	the precision and
0.2620000000	the mixing time
0.2620000000	top k ranking
0.2620000000	an adaptation of
0.2620000000	learning word embeddings
0.2620000000	haar like features
0.2620000000	this lower bound
0.2620000000	majority rule
0.2620000000	model evaluation
0.2620000000	structured representations
0.2620000000	depth fusion
0.2620000000	testing accuracy
0.2620000000	interactions between
0.2620000000	this language
0.2620000000	word pair
0.2620000000	algorithm configuration
0.2620000000	draw samples
0.2620000000	category information
0.2620000000	scale dataset
0.2620000000	network wide
0.2620000000	network of
0.2620000000	game play
0.2620000000	source sentence
0.2620000000	visual classifiers
0.2620000000	textual documents
0.2620000000	performance guarantee
0.2620000000	perceptron algorithm
0.2620000000	correctly identify
0.2620000000	3d gaze
0.2620000000	solomonoff s
0.2620000000	control algorithm
0.2620000000	event classification
0.2620000000	localize objects
0.2620000000	gradient algorithms
0.2620000000	k svd
0.2620000000	accurate classification
0.2620000000	microscopic images
0.2620000000	clear advantage
0.2620000000	techniques including
0.2620000000	realistic scenario
0.2620000000	code space
0.2620000000	parametric gaussian
0.2620000000	the deterministic
0.2620000000	the configuration
0.2620000000	affinity graph
0.2620000000	the operator
0.2620000000	robustness against
0.2620000000	the vision
0.2620000000	the dual
0.2620000000	the adversary
0.2620000000	the scaling
0.2620000000	the strategy
0.2620000000	the cardinality
0.2620000000	fitting problem
0.2620000000	controlled english
0.2620000000	deeper architectures
0.2620000000	information setting
0.2620000000	manual tuning
0.2620000000	optimization model
0.2620000000	typically used
0.2620000000	open challenges
0.2620000000	deeper layers
0.2620000000	learning embeddings
0.2620000000	learning dl
0.2620000000	speech act
0.2620000000	yields substantial
0.2620000000	nodes of
0.2620000000	fairly general
0.2620000000	method of
0.2620000000	empirically verify
0.2620000000	automatic estimation
0.2620000000	of domain
0.2620000000	human computer
0.2620000000	level classification
0.2620000000	level information
0.2620000000	clustering in
0.2620000000	shape classification
0.2620000000	shape recognition
0.2620000000	transition matrices
0.2620000000	based control
0.2620000000	data problem
0.2620000000	yield significant
0.2620000000	based estimation
0.2620000000	data efficient
0.2620000000	based policies
0.2620000000	noise patterns
0.2620000000	intent detection
0.2620000000	independent features
0.2620000000	multi aspect
0.2620000000	learnable parameters
0.2620000000	target class
0.2620000000	cognitive functions
0.2620000000	related data
0.2620000000	grid maps
0.2620000000	o t
0.2620000000	classifier fusion
0.2620000000	decoding algorithm
0.2620000000	minimal supervision
0.2620000000	manually constructed
0.2620000000	driving scenarios
0.2620000000	hierarchical priors
0.2620000000	considerably improves
0.2620000000	probabilistic belief
0.2620000000	detect outliers
0.2620000000	helps to
0.2620000000	a model
0.2620000000	a neuron
0.2620000000	rank k
0.2610000000	optimal up to logarithmic factors
0.2610000000	an important and challenging problem
0.2610000000	a convex optimization problem
0.2610000000	x in mathbb r
0.2610000000	both in theory and
0.2610000000	semantic segmentation and object
0.2610000000	for strongly convex problems
0.2610000000	for multi class classification
0.2610000000	representations of words and
0.2610000000	the recent success of
0.2610000000	based language model
0.2610000000	the singular value
0.2610000000	both unsupervised and
0.2610000000	images for training
0.2610000000	at least one
0.2610000000	several orders of
0.2610000000	object detection datasets
0.2610000000	models for large
0.2610000000	in reinforcement learning
0.2610000000	problem of maximizing
0.2610000000	to english translation
0.2610000000	the shannon entropy
0.2610000000	problem of solving
0.2610000000	the need of
0.2610000000	degree of grey
0.2610000000	semantic and syntactic
0.2610000000	yield better results
0.2610000000	whether or not
0.2610000000	number of rules
0.2610000000	the cumulative regret
0.2610000000	as soon as
0.2610000000	deep q network
0.2610000000	a regression problem
0.2610000000	machine translation smt
0.2610000000	a user s
0.2610000000	phase transition in
0.2610000000	on synthetic and
0.2610000000	the reward of
0.2610000000	an estimate of
0.2610000000	temporal and spatial
0.2610000000	the eigenvalues of
0.2610000000	the synaptic weights
0.2610000000	image segmentation method
0.2610000000	higher accuracy than
0.2610000000	a noisy channel
0.2610000000	data sets show
0.2610000000	for non convex
0.2610000000	present and future
0.2610000000	simple yet effective
0.2610000000	reinforcement learning tasks
0.2610000000	simple yet powerful
0.2610000000	both local and
0.2610000000	both forward and
0.2610000000	hard and soft
0.2610000000	log n log
0.2610000000	dictionary learning framework
0.2610000000	deep feature representations
0.2610000000	technical aspects
0.2610000000	axiomatic framework
0.2610000000	sparse optimization
0.2610000000	sparse binary
0.2610000000	this logic
0.2610000000	model interpretation
0.2610000000	this structure
0.2610000000	this corpus
0.2610000000	learned dictionary
0.2610000000	model learning
0.2610000000	triplet network
0.2610000000	registration problem
0.2610000000	3d objects
0.2610000000	negative rate
0.2610000000	s tau
0.2610000000	ranking function
0.2610000000	transformation matrix
0.2610000000	line learning
0.2610000000	set selection
0.2610000000	deep probabilistic
0.2610000000	on language
0.2610000000	efficient stochastic
0.2610000000	varying sizes
0.2610000000	efficient model
0.2610000000	smoothness term
0.2610000000	cut algorithm
0.2610000000	hashing scheme
0.2610000000	inference systems
0.2610000000	the eigenvectors
0.2610000000	the nystr
0.2610000000	the static
0.2610000000	the active
0.2610000000	not applicable
0.2610000000	existing image
0.2610000000	the levels
0.2610000000	block term
0.2610000000	the activations
0.2610000000	the simulator
0.2610000000	the contrast
0.2610000000	continuous function
0.2610000000	local approaches
0.2610000000	proposed technique
0.2610000000	learning image
0.2610000000	sum games
0.2610000000	level representations
0.2610000000	estimation model
0.2610000000	general theoretical
0.2610000000	of search
0.2610000000	human values
0.2610000000	of order
0.2610000000	knn classification
0.2610000000	clustering with
0.2610000000	structural assumptions
0.2610000000	independence based
0.2610000000	kernel clustering
0.2610000000	pairwise relationships
0.2610000000	relationships among
0.2610000000	q iteration
0.2610000000	lasso type
0.2610000000	based recommender
0.2610000000	based compressive
0.2610000000	based scheme
0.2610000000	evolutionary search
0.2610000000	projection operator
0.2610000000	dynamic background
0.2610000000	tasks image
0.2610000000	numerical tests
0.2610000000	similarity function
0.2610000000	position sensitive
0.2610000000	large vocabularies
0.2610000000	grid world
0.2610000000	cad models
0.2610000000	gaussian models
0.2610000000	gaussian prior
0.2610000000	error backpropagation
0.2610000000	interactive learning
0.2610000000	initial solution
0.2610000000	non adaptive
0.2610000000	l h
0.2610000000	text document
0.2610000000	object locations
0.2610000000	object position
0.2610000000	convolutional operations
0.2610000000	object search
0.2610000000	ambient space
0.2610000000	detect human
0.2610000000	a manifold
0.2600000000	language processing and computer vision
0.2600000000	the optimal solution of
0.2600000000	an important task in
0.2600000000	end to end deep
0.2600000000	the main result of
0.2600000000	in order to make
0.2600000000	the art performance in
0.2600000000	the existing state of
0.2600000000	experimental results on benchmark
0.2600000000	an order of
0.2600000000	continuous time bayesian
0.2600000000	to account for
0.2600000000	more efficient than
0.2600000000	accuracy and computational
0.2600000000	an f score
0.2600000000	popular and successful
0.2600000000	both theoretical and
0.2600000000	a simulation study
0.2600000000	convergence rate of
0.2600000000	with applications to
0.2600000000	weighted ell 1
0.2600000000	2 d complex
0.2600000000	for multi class
0.2600000000	the basis for
0.2600000000	the relationships between
0.2600000000	tomography ct images
0.2600000000	both discrete and
0.2600000000	more likely to
0.2600000000	the reward function
0.2600000000	deep learning networks
0.2600000000	a part of
0.2600000000	the commonly used
0.2600000000	the states of
0.2600000000	both static and
0.2600000000	the course of
0.2600000000	performance of image
0.2600000000	both qualitative and
0.2600000000	a comparison of
0.2600000000	function f x
0.2600000000	better performance than
0.2600000000	the widely used
0.2600000000	the extent of
0.2600000000	both supervised and
0.2600000000	a result of
0.2600000000	video and text
0.2600000000	the multi objective
0.2600000000	subjective and objective
0.2600000000	computational and storage
0.2600000000	both positive and
0.2600000000	quality of reconstructed
0.2600000000	made publicly available
0.2600000000	semantically relevant
0.2600000000	categories and
0.2600000000	this bound
0.2600000000	norm based
0.2600000000	new variant
0.2600000000	observed entries
0.2600000000	3d models
0.2600000000	extension of
0.2600000000	language in
0.2600000000	particular cases
0.2600000000	hardware resources
0.2600000000	set and
0.2600000000	spatial smoothness
0.2600000000	from incomplete
0.2600000000	each player
0.2600000000	for 3d
0.2600000000	minimax rate
0.2600000000	each class
0.2600000000	the superior
0.2600000000	the dempster
0.2600000000	autonomous robot
0.2600000000	pruned network
0.2600000000	existing method
0.2600000000	the gain
0.2600000000	the encoding
0.2600000000	the columns
0.2600000000	the black
0.2600000000	the over
0.2600000000	the curse
0.2600000000	the vulnerability
0.2600000000	the contexts
0.2600000000	kernel for
0.2600000000	arbitrary shapes
0.2600000000	connected component
0.2600000000	semantic change
0.2600000000	close connection
0.2600000000	of target
0.2600000000	of clusters
0.2600000000	portfolio optimization
0.2600000000	coding schemes
0.2600000000	data types
0.2600000000	noise robust
0.2600000000	syntactic trees
0.2600000000	scientific community
0.2600000000	multi branch
0.2600000000	short message
0.2600000000	with gaussian
0.2600000000	multiple annotators
0.2600000000	a worst
0.2600000000	a named
0.2590000000	applications in machine learning
0.2590000000	the optimal solution to
0.2590000000	the decision maker s
0.2590000000	a novel method for
0.2590000000	principal component analysis rpca
0.2590000000	the dempster shafer theory
0.2590000000	the nuclear norm minimization
0.2590000000	the main advantage of
0.2590000000	facial expression recognition using
0.2590000000	a small fraction of
0.2590000000	a new approach for
0.2590000000	an empirical evaluation of
0.2590000000	detection and classification of
0.2590000000	to make full use
0.2590000000	a powerful tool for
0.2590000000	a new algorithm for
0.2590000000	by several orders of
0.2590000000	a key role in
0.2590000000	the predictive performance of
0.2590000000	a large variety of
0.2590000000	an f1 score of
0.2590000000	the leave one
0.2590000000	based and distributional
0.2590000000	a discussion of
0.2590000000	measures of similarity
0.2590000000	continuous time markov
0.2590000000	the incorporation of
0.2590000000	both theoretically and
0.2590000000	choice of parameters
0.2590000000	both quantitative and
0.2590000000	family of kernels
0.2590000000	approach to bayesian
0.2590000000	learning to hash
0.2590000000	audio and visual
0.2590000000	the faster r
0.2590000000	both real and
0.2590000000	problems in bioinformatics
0.2590000000	computer vision and
0.2590000000	based image segmentation
0.2590000000	a factor of
0.2590000000	problem of semantic
0.2590000000	learning and artificial
0.2590000000	problem of matching
0.2590000000	features and deep
0.2590000000	the promise of
0.2590000000	information from data
0.2590000000	complexity of planning
0.2590000000	field of digital
0.2590000000	number of experts
0.2590000000	subset of nodes
0.2590000000	efficient online learning
0.2590000000	time series analysis
0.2590000000	type of covering
0.2590000000	data and knowledge
0.2590000000	theory of belief
0.2590000000	types of image
0.2590000000	number of sources
0.2590000000	number of human
0.2590000000	segmentation of retinal
0.2590000000	piece of evidence
0.2590000000	set of videos
0.2590000000	set of facts
0.2590000000	the publicly available
0.2590000000	set of methods
0.2590000000	set of basic
0.2590000000	measure of semantic
0.2590000000	learning with linear
0.2590000000	both artificial and
0.2590000000	inference in probabilistic
0.2590000000	model for visual
0.2590000000	measure of distance
0.2590000000	the interaction between
0.2590000000	web of data
0.2590000000	online feature selection
0.2590000000	the significance of
0.2590000000	the mode of
0.2590000000	implementation of deep
0.2590000000	becomes more and
0.2590000000	a growing interest
0.2590000000	the proposed methods
0.2590000000	a form of
0.2590000000	two orders of
0.2590000000	segmentation and labeling
0.2590000000	lines of research
0.2590000000	actor and action
0.2590000000	reinforcement learning model
0.2590000000	the input space
0.2590000000	a considerable amount
0.2590000000	in real time
0.2590000000	the viability of
0.2590000000	image and sentence
0.2590000000	image and question
0.2590000000	random fields crfs
0.2590000000	type 2 fuzzy
0.2590000000	power and memory
0.2590000000	under partial observability
0.2590000000	prediction with expert
0.2590000000	a multi layer
0.2590000000	a piece of
0.2590000000	multi scale information
0.2590000000	dimensionality of data
0.2590000000	bandit convex optimization
0.2590000000	level computer vision
0.2590000000	quantized neural networks
0.2590000000	an example of
0.2590000000	line of research
0.2590000000	an integral part
0.2590000000	training generative models
0.2590000000	neural network technique
0.2590000000	image analysis methods
0.2590000000	set to set
0.2590000000	recognition and object
0.2590000000	one major
0.2590000000	gram model
0.2590000000	billion scale
0.2590000000	nonlinear mapping
0.2590000000	adaptive filter
0.2590000000	web interface
0.2590000000	challenging kitti
0.2590000000	base level
0.2590000000	prototype implementation
0.2590000000	this challenging
0.2590000000	model temporal
0.2590000000	model transfer
0.2590000000	processing pipelines
0.2590000000	bounded degree
0.2590000000	geometric data
0.2590000000	theoretical insights
0.2590000000	traditional neural
0.2590000000	supervised multi
0.2590000000	3d structure
0.2590000000	extensive form
0.2590000000	empirical comparisons
0.2590000000	language grounding
0.2590000000	cancer detection
0.2590000000	argumentation based
0.2590000000	packing problem
0.2590000000	strongly connected
0.2590000000	gradient estimator
0.2590000000	support norm
0.2590000000	from o
0.2590000000	statistical rate
0.2590000000	written english
0.2590000000	efficient deep
0.2590000000	ilsvrc 2014
0.2590000000	the regularizer
0.2590000000	signal strength
0.2590000000	dramatically improved
0.2590000000	filter coefficients
0.2590000000	the procedure
0.2590000000	ann model
0.2590000000	the scientific
0.2590000000	the b
0.2590000000	the former
0.2590000000	the primal
0.2590000000	information network
0.2590000000	feature similarity
0.2590000000	articulated human
0.2590000000	action language
0.2590000000	sensing framework
0.2590000000	semantic segmentations
0.2590000000	of optimal
0.2590000000	field crf
0.2590000000	clustering performance
0.2590000000	multimodal embedding
0.2590000000	global motion
0.2590000000	clustering quality
0.2590000000	an event
0.2590000000	compression schemes
0.2590000000	robust control
0.2590000000	based fuzzy
0.2590000000	approaches infinity
0.2590000000	adaptation algorithm
0.2590000000	challenge 2017
0.2590000000	automatically extracting
0.2590000000	real image
0.2590000000	weighted graphs
0.2590000000	training datasets
0.2590000000	balancing problem
0.2590000000	optimal set
0.2590000000	guided filtering
0.2590000000	internal states
0.2590000000	orders of
0.2590000000	random vector
0.2590000000	belief nets
0.2590000000	bayesian image
0.2590000000	and neural
0.2590000000	secondary structure
0.2590000000	and learning
0.2590000000	and segmentation
0.2590000000	failure cases
0.2590000000	distributed estimation
0.2590000000	multiple linear
0.2590000000	convolution operations
0.2590000000	in dynamic
0.2590000000	a search
0.2590000000	forecasting accuracy
0.2580000000	natural language processing and computer vision
0.2580000000	experimental results on synthetic and real
0.2580000000	the dempster shafer theory of evidence
0.2580000000	proposed method outperforms state of
0.2580000000	a low dimensional manifold
0.2580000000	applications in image processing
0.2580000000	a method based on
0.2580000000	the expressive power of
0.2580000000	a new method for
0.2580000000	neural networks for image
0.2580000000	a reinforcement learning problem
0.2580000000	the number of samples
0.2580000000	a deep fully convolutional
0.2580000000	the lower and upper
0.2580000000	orders of magnitude larger
0.2580000000	the same number of
0.2580000000	word by word
0.2580000000	the coefficient of
0.2580000000	more and more
0.2580000000	learning in deep
0.2580000000	learning to learn
0.2580000000	humans and machines
0.2580000000	structure and motion
0.2580000000	methods for neural
0.2580000000	propositional logic and
0.2580000000	this leads to
0.2580000000	a key component
0.2580000000	retrieval of images
0.2580000000	the gibbs sampler
0.2580000000	matches or outperforms
0.2580000000	number of words
0.2580000000	the scores of
0.2580000000	the integration of
0.2580000000	number of arms
0.2580000000	number of users
0.2580000000	from catastrophic forgetting
0.2580000000	the inverse of
0.2580000000	a description of
0.2580000000	set of hypotheses
0.2580000000	different parts of
0.2580000000	series of experiments
0.2580000000	set of nodes
0.2580000000	set of options
0.2580000000	framework for human
0.2580000000	l 1 regularized
0.2580000000	text in natural
0.2580000000	as part of
0.2580000000	an improvement in
0.2580000000	an improvement of
0.2580000000	based on long
0.2580000000	agent s actions
0.2580000000	deformable part models
0.2580000000	shape and appearance
0.2580000000	a principled way
0.2580000000	a sensitivity analysis
0.2580000000	the efficiency and
0.2580000000	a method for
0.2580000000	a variation of
0.2580000000	a review of
0.2580000000	similar and dissimilar
0.2580000000	both synthetic and
0.2580000000	nearest neighbor rule
0.2580000000	for logic programs
0.2580000000	the lasso and
0.2580000000	both indoor and
0.2580000000	experimental analysis
0.2580000000	samples according
0.2580000000	future frame
0.2580000000	instead of
0.2580000000	raw input
0.2580000000	extensive research
0.2580000000	invariant mnist
0.2580000000	network dbn
0.2580000000	game development
0.2580000000	distribution with
0.2580000000	stochastic proximal
0.2580000000	amount of
0.2580000000	foreground and
0.2580000000	for example
0.2580000000	for indian
0.2580000000	for relational
0.2580000000	for autonomous
0.2580000000	hashing algorithms
0.2580000000	plugged into
0.2580000000	mixture weights
0.2580000000	the geometric
0.2580000000	expression databases
0.2580000000	the cause
0.2580000000	the receptive
0.2580000000	the body
0.2580000000	the isic
0.2580000000	the presentation
0.2580000000	the weighted
0.2580000000	discriminative regions
0.2580000000	the norm
0.2580000000	the generator
0.2580000000	the brain
0.2580000000	the component
0.2580000000	the evidence
0.2580000000	the principal
0.2580000000	main components
0.2580000000	inference framework
0.2580000000	up to
0.2580000000	long period
0.2580000000	learning ssl
0.2580000000	proof search
0.2580000000	of variables
0.2580000000	of independence
0.2580000000	of digital
0.2580000000	data scientists
0.2580000000	latent gaussian
0.2580000000	capitalizing on
0.2580000000	characters and
0.2580000000	poor languages
0.2580000000	along with
0.2580000000	fusion strategy
0.2580000000	object trackers
0.2580000000	scene geometry
0.2580000000	basic principles
0.2580000000	games and
0.2580000000	and q
0.2580000000	and decision
0.2580000000	sign recognition
0.2580000000	a semantic
0.2580000000	times fewer
0.2580000000	a d
0.2580000000	a particular
0.2580000000	output space
0.2580000000	a few
0.2580000000	in particle
0.2580000000	in retinal
0.2570000000	both synthetic and real world data
0.2570000000	experiments on simulated and real
0.2570000000	deep learning in computer vision
0.2570000000	simple and easy to implement
0.2570000000	natural language processing tasks such
0.2570000000	tasks such as object recognition
0.2570000000	tasks such as image classification
0.2570000000	image processing and computer vision
0.2570000000	polynomial time algorithm for learning
0.2570000000	widely used in machine learning
0.2570000000	variety of computer vision tasks
0.2570000000	research topic in computer vision
0.2570000000	an active area of
0.2570000000	recent advances in deep
0.2570000000	large amounts of labeled
0.2570000000	large amounts of training
0.2570000000	machine learning and data
0.2570000000	machine learning and signal
0.2570000000	machine learning and pattern
0.2570000000	existing methods in terms
0.2570000000	the rapid development of
0.2570000000	a novel approach to
0.2570000000	unsupervised image to image
0.2570000000	a novel approach for
0.2570000000	deep learning algorithm for
0.2570000000	the convolutional neural network
0.2570000000	the generalization ability of
0.2570000000	object detection and pose
0.2570000000	the main purpose of
0.2570000000	image classification and object
0.2570000000	an implementation of
0.2570000000	mathcal o d
0.2570000000	drop in performance
0.2570000000	the second approach
0.2570000000	code and data
0.2570000000	to do so
0.2570000000	with missing values
0.2570000000	lexical and syntactic
0.2570000000	two sample test
0.2570000000	an application to
0.2570000000	person pose estimation
0.2570000000	the inference of
0.2570000000	an approximation of
0.2570000000	a step towards
0.2570000000	based image processing
0.2570000000	a state of
0.2570000000	an application of
0.2570000000	the present work
0.2570000000	the issue of
0.2570000000	pre trained on
0.2570000000	storage and computation
0.2570000000	a survey of
0.2570000000	a solution to
0.2570000000	data analysis methods
0.2570000000	different types of
0.2570000000	a sound and
0.2570000000	more accurate than
0.2570000000	artificial intelligence methods
0.2570000000	discrete optimization problem
0.2570000000	2d joint locations
0.2570000000	efficient and accurate
0.2570000000	scales to large
0.2570000000	a widely used
0.2570000000	on simulated and
0.2570000000	an alternative to
0.2570000000	depth and width
0.2570000000	adaptive feature
0.2570000000	recognition techniques
0.2570000000	quantitative data
0.2570000000	models and
0.2570000000	additional assumptions
0.2570000000	this short
0.2570000000	eye images
0.2570000000	registration based
0.2570000000	source word
0.2570000000	single pass
0.2570000000	point density
0.2570000000	spatial spectral
0.2570000000	integral probability
0.2570000000	gradient of
0.2570000000	test statistics
0.2570000000	x i
0.2570000000	the software
0.2570000000	matrix space
0.2570000000	the learner
0.2570000000	existing object
0.2570000000	the orientation
0.2570000000	the modelling
0.2570000000	the discriminator
0.2570000000	learning agent
0.2570000000	binary code
0.2570000000	of video
0.2570000000	of features
0.2570000000	level images
0.2570000000	of matrix
0.2570000000	human annotation
0.2570000000	method and
0.2570000000	specific dataset
0.2570000000	data quality
0.2570000000	pairwise relations
0.2570000000	recent theory
0.2570000000	these generative
0.2570000000	resorting to
0.2570000000	captioning task
0.2570000000	between performance
0.2570000000	o k
0.2570000000	optimal strategy
0.2570000000	gaussian distributed
0.2570000000	classification technique
0.2570000000	d epsilon
0.2570000000	activities and
0.2570000000	a query
0.2570000000	a visual
0.2570000000	a and
0.2570000000	probability function
0.2570000000	a sentence
0.2570000000	a node
0.2570000000	in x
0.2570000000	multiple time
0.2560000000	loss functions such as
0.2560000000	areas of computer vision
0.2560000000	this class of problems
0.2560000000	compared with other methods
0.2560000000	in order to find
0.2560000000	results on two benchmark
0.2560000000	consists of two steps
0.2560000000	a new class of
0.2560000000	does not depend on
0.2560000000	the experimental results show
0.2560000000	a lower bound on
0.2560000000	gaussian process regression with
0.2560000000	the loss function and
0.2560000000	a comprehensive set of
0.2560000000	does not rely on
0.2560000000	the optimal rate of
0.2560000000	a large dataset of
0.2560000000	assumption does not hold
0.2560000000	on two publicly available
0.2560000000	topic modeling based
0.2560000000	the person re
0.2560000000	and upper approximations
0.2560000000	in addition to
0.2560000000	the potential of
0.2560000000	used to extract
0.2560000000	the pixels of
0.2560000000	the difficulty of
0.2560000000	the bayes optimal
0.2560000000	as measured by
0.2560000000	the decomposition of
0.2560000000	the novelty of
0.2560000000	a period of
0.2560000000	the perception of
0.2560000000	the entries of
0.2560000000	state and action
0.2560000000	the temporal dynamics
0.2560000000	image data sets
0.2560000000	real valued data
0.2560000000	network based methods
0.2560000000	a well known
0.2560000000	a corpus of
0.2560000000	dynamic bayesian network
0.2560000000	a central problem
0.2560000000	maximum entropy discrimination
0.2560000000	a total of
0.2560000000	the map of
0.2560000000	for code mixed
0.2560000000	algorithms on real
0.2560000000	a framework for
0.2560000000	the activity of
0.2560000000	sparse coding based
0.2560000000	the development and
0.2560000000	a multi class
0.2560000000	becoming increasingly important
0.2560000000	the answer to
0.2560000000	the idea of
0.2560000000	bayesian optimization methods
0.2560000000	also known as
0.2560000000	english chinese
0.2560000000	base construction
0.2560000000	root mean
0.2560000000	wide coverage
0.2560000000	layer feedforward
0.2560000000	highly redundant
0.2560000000	base completion
0.2560000000	learned models
0.2560000000	used for
0.2560000000	nonlinear optimization
0.2560000000	immune systems
0.2560000000	prediction approach
0.2560000000	image region
0.2560000000	network classification
0.2560000000	prediction scheme
0.2560000000	language evolution
0.2560000000	convex objectives
0.2560000000	dimensional embeddings
0.2560000000	exponential weights
0.2560000000	markov tree
0.2560000000	smoothness constraints
0.2560000000	deep temporal
0.2560000000	polynomial regression
0.2560000000	hinges on
0.2560000000	associated with
0.2560000000	the u
0.2560000000	the coefficient
0.2560000000	some limitations
0.2560000000	the probabilistic
0.2560000000	the package
0.2560000000	the transition
0.2560000000	the i
0.2560000000	the net
0.2560000000	complete characterization
0.2560000000	map reduce
0.2560000000	proposed convolutional
0.2560000000	proposed estimator
0.2560000000	standard lstm
0.2560000000	feature hashing
0.2560000000	context words
0.2560000000	of reservoir
0.2560000000	of mixture
0.2560000000	motion detection
0.2560000000	fast mixing
0.2560000000	fully annotated
0.2560000000	of images
0.2560000000	siamese networks
0.2560000000	search task
0.2560000000	of k
0.2560000000	of particular
0.2560000000	subspace decomposition
0.2560000000	alignment based
0.2560000000	motion sequences
0.2560000000	structural data
0.2560000000	to account
0.2560000000	latent code
0.2560000000	lexicon based
0.2560000000	self care
0.2560000000	sample testing
0.2560000000	based tracking
0.2560000000	to accomplish
0.2560000000	based single
0.2560000000	based word
0.2560000000	task allocation
0.2560000000	optimal mutation
0.2560000000	meaning representations
0.2560000000	total reward
0.2560000000	margin criterion
0.2560000000	better understanding
0.2560000000	meta algorithms
0.2560000000	text images
0.2560000000	n omega
0.2560000000	labeled source
0.2560000000	random measures
0.2560000000	normal data
0.2560000000	and for
0.2560000000	classification network
0.2560000000	classification decisions
0.2560000000	perform worse
0.2560000000	and semi
0.2560000000	transform learning
0.2560000000	a lexical
0.2560000000	limited memory
0.2560000000	teacher model
0.2560000000	a near
0.2560000000	extensively tested
0.2550000000	the number of support vectors
0.2550000000	end to end training of
0.2550000000	a new state of
0.2550000000	the faster r cnn
0.2550000000	the data generating process
0.2550000000	an extensive set of
0.2550000000	consists of two parts
0.2550000000	consists of two stages
0.2550000000	a new approach to
0.2550000000	learning and computer vision
0.2550000000	a broad range of
0.2550000000	performs significantly better than
0.2550000000	experiments on three benchmark
0.2550000000	a reasonable amount of
0.2550000000	publicly available at https
0.2550000000	method for learning
0.2550000000	mutual information between
0.2550000000	an approach for
0.2550000000	class of functions
0.2550000000	the l1 norm
0.2550000000	with and without
0.2550000000	approach to image
0.2550000000	learning to optimize
0.2550000000	the point cloud
0.2550000000	the variations of
0.2550000000	the grassmann manifold
0.2550000000	in combination with
0.2550000000	an ensemble of
0.2550000000	the spatial and
0.2550000000	the web of
0.2550000000	results in significant
0.2550000000	the self organizing
0.2550000000	become very popular
0.2550000000	time series forecasting
0.2550000000	the retrieval of
0.2550000000	wang et al
0.2550000000	set of patterns
0.2550000000	a survey on
0.2550000000	a basis for
0.2550000000	chen et al
0.2550000000	the results show
0.2550000000	the capabilities of
0.2550000000	ucf 101 and
0.2550000000	the possibility of
0.2550000000	the suitability of
0.2550000000	both source and
0.2550000000	zhang et al
0.2550000000	the proposed tracker
0.2550000000	the global and
0.2550000000	not limited to
0.2550000000	classes of algorithms
0.2550000000	the automatic segmentation
0.2550000000	in conjunction with
0.2550000000	the norm of
0.2550000000	the usage of
0.2550000000	the short term
0.2550000000	a consequence of
0.2550000000	network to model
0.2550000000	the deviation of
0.2550000000	the difference of
0.2550000000	character and word
0.2550000000	the performances of
0.2550000000	the simplicity of
0.2550000000	unseen environments
0.2550000000	word types
0.2550000000	software platform
0.2550000000	nonlinear activation
0.2550000000	normalization method
0.2550000000	thresholding scheme
0.2550000000	newly introduced
0.2550000000	linguistic analysis
0.2550000000	for topic
0.2550000000	finding optimal
0.2550000000	markov equivalent
0.2550000000	colour images
0.2550000000	from first
0.2550000000	the correspondence
0.2550000000	the article
0.2550000000	the multivariate
0.2550000000	the kl
0.2550000000	the latter
0.2550000000	the sub
0.2550000000	the evolutionary
0.2550000000	the syntactic
0.2550000000	rational decision
0.2550000000	stationary environments
0.2550000000	svhn dataset
0.2550000000	methods assume
0.2550000000	learning system
0.2550000000	alternating optimization
0.2550000000	series forecasting
0.2550000000	earlier layers
0.2550000000	of reasoning
0.2550000000	very small
0.2550000000	h x
0.2550000000	subspace projection
0.2550000000	global illumination
0.2550000000	of interest
0.2550000000	of semantic
0.2550000000	hastings algorithm
0.2550000000	passed through
0.2550000000	significant challenges
0.2550000000	while allowing
0.2550000000	syntactic features
0.2550000000	static background
0.2550000000	locally weighted
0.2550000000	computational hardness
0.2550000000	training phase
0.2550000000	key contribution
0.2550000000	hep 2
0.2550000000	at least
0.2550000000	able to
0.2550000000	character segmentation
0.2550000000	various fields
0.2550000000	streaming setting
0.2550000000	appearance models
0.2550000000	and stochastic
0.2550000000	error of
0.2550000000	and action
0.2550000000	ai researchers
0.2550000000	probabilistic forecasting
0.2550000000	a partition
0.2550000000	a grammar
0.2550000000	a document
0.2550000000	a k
0.2550000000	explicitly represents
0.2550000000	a b
0.2550000000	in particular
0.2550000000	denoising performance
0.2550000000	followed by
0.2550000000	d c
0.2550000000	filters in
0.2540000000	both in theory and in
0.2540000000	the effectiveness and efficiency of
0.2540000000	approach outperforms state of
0.2540000000	fields of computer vision
0.2540000000	regions of interest roi
0.2540000000	this paper deals with
0.2540000000	object detection based on
0.2540000000	costly and time consuming
0.2540000000	the classification performance of
0.2540000000	a large class of
0.2540000000	a small set of
0.2540000000	a limited number of
0.2540000000	datasets such as imagenet
0.2540000000	difficult and time consuming
0.2540000000	a classification accuracy of
0.2540000000	as close as possible
0.2540000000	non rigid structure from
0.2540000000	consists of three steps
0.2540000000	pose and illumination
0.2540000000	an approach to
0.2540000000	the connection between
0.2540000000	various types of
0.2540000000	implemented and evaluated
0.2540000000	give rise to
0.2540000000	a learning to
0.2540000000	data log likelihood
0.2540000000	well suited for
0.2540000000	scale of data
0.2540000000	a new architecture
0.2540000000	a surge of
0.2540000000	the heart of
0.2540000000	an instance of
0.2540000000	make full use
0.2540000000	both simulated and
0.2540000000	to search for
0.2540000000	a modification of
0.2540000000	in comparison with
0.2540000000	the local and
0.2540000000	for large scale
0.2540000000	a simple and
0.2540000000	the graphical lasso
0.2540000000	each layer of
0.2540000000	the generality of
0.2540000000	the merits of
0.2540000000	ability to learn
0.2540000000	the scalability of
0.2540000000	in doing so
0.2540000000	a top down
0.2540000000	both qualitatively and
0.2540000000	rational decision making
0.2540000000	for recognition of
0.2540000000	structured inference
0.2540000000	models of
0.2540000000	future observations
0.2540000000	category based
0.2540000000	parallel training
0.2540000000	textual description
0.2540000000	neighborhood graphs
0.2540000000	on policy
0.2540000000	from unstructured
0.2540000000	from depth
0.2540000000	too slow
0.2540000000	techniques used
0.2540000000	map and
0.2540000000	the credibility
0.2540000000	the embedded
0.2540000000	the bias
0.2540000000	the global
0.2540000000	the techniques
0.2540000000	ehr data
0.2540000000	of dynamic
0.2540000000	level action
0.2540000000	of questions
0.2540000000	automatic summarization
0.2540000000	fully autonomous
0.2540000000	kernel distance
0.2540000000	these bounds
0.2540000000	an off
0.2540000000	an svm
0.2540000000	did not
0.2540000000	translation pairs
0.2540000000	multi player
0.2540000000	type i
0.2540000000	million web
0.2540000000	and to
0.2540000000	bi level
0.2540000000	networks to
0.2540000000	multiple criteria
0.2540000000	a singular
0.2530000000	on long short term memory
0.2530000000	with long short term memory
0.2530000000	to take advantage of
0.2530000000	a broad class of
0.2530000000	a deep generative model
0.2530000000	both simulated data and
0.2530000000	a small subset of
0.2530000000	the most widely used
0.2530000000	a limited amount of
0.2530000000	at least as good
0.2530000000	in statistical machine translation
0.2530000000	the same person
0.2530000000	the relevance of
0.2530000000	two sample tests
0.2530000000	an effective approach
0.2530000000	the contents of
0.2530000000	the capability of
0.2530000000	the random walk
0.2530000000	the eigenvectors of
0.2530000000	a branch and
0.2530000000	the benefit of
0.2530000000	the shortest path
0.2530000000	set of features
0.2530000000	framework for learning
0.2530000000	low resolution input
0.2530000000	an extension to
0.2530000000	real time applications
0.2530000000	a particle filter
0.2530000000	on par with
0.2530000000	a phase transition
0.2530000000	the smoothness of
0.2530000000	the higher level
0.2530000000	the proximal operator
0.2530000000	a simple but
0.2530000000	different kinds of
0.2530000000	images and videos
0.2530000000	for drug discovery
0.2530000000	the flexibility of
0.2530000000	algorithm to solve
0.2530000000	the scope of
0.2530000000	free parameters
0.2530000000	nonlinear regression
0.2530000000	future works
0.2530000000	word problem
0.2530000000	challenging task
0.2530000000	roget s
0.2530000000	regret of
0.2530000000	discrete and
0.2530000000	image formation
0.2530000000	single action
0.2530000000	stochastic methods
0.2530000000	manifold model
0.2530000000	two major
0.2530000000	hybrid models
0.2530000000	hard margin
0.2530000000	rotation and
0.2530000000	test inputs
0.2530000000	for instance
0.2530000000	for named
0.2530000000	relevance propagation
0.2530000000	tracking of
0.2530000000	the ising
0.2530000000	the patient
0.2530000000	genome dataset
0.2530000000	the two
0.2530000000	discriminative visual
0.2530000000	the phenomenon
0.2530000000	the projection
0.2530000000	discovery methods
0.2530000000	structure called
0.2530000000	popular classification
0.2530000000	pca and
0.2530000000	no need
0.2530000000	arbitrary length
0.2530000000	low pass
0.2530000000	of online
0.2530000000	of training
0.2530000000	of at
0.2530000000	of noise
0.2530000000	multimodal fusion
0.2530000000	implicit generative
0.2530000000	unique challenges
0.2530000000	conditional gradient
0.2530000000	to work
0.2530000000	automatically extracts
0.2530000000	g x
0.2530000000	target functions
0.2530000000	task performance
0.2530000000	graph filtering
0.2530000000	task completion
0.2530000000	approach takes
0.2530000000	large objects
0.2530000000	epsilon 1
0.2530000000	look at
0.2530000000	object based
0.2530000000	and in
0.2530000000	and on
0.2530000000	text extraction
0.2530000000	networks on
0.2530000000	allocation strategies
0.2530000000	a speech
0.2530000000	in case
0.2530000000	in information
0.2530000000	detection approach
0.2520000000	achieves significant improvements over
0.2520000000	a special case of
0.2520000000	the previous state of
0.2520000000	this paper focuses on
0.2520000000	a linear combination of
0.2520000000	probability at least 1
0.2520000000	bias variance trade off
0.2520000000	a novel framework for
0.2520000000	the superior performance of
0.2520000000	the other based on
0.2520000000	the number of clusters
0.2520000000	10 fold cross validation
0.2520000000	a large amount of
0.2520000000	the network to learn
0.2520000000	quantitative and qualitative evaluation
0.2520000000	a deep q network
0.2520000000	faster and more accurate
0.2520000000	consists of three parts
0.2520000000	perform well in
0.2520000000	for intrusion detection
0.2520000000	the area of
0.2520000000	robust and accurate
0.2520000000	linear units relu
0.2520000000	a fraction of
0.2520000000	to cope with
0.2520000000	in spite of
0.2520000000	the feasibility of
0.2520000000	the creation of
0.2520000000	the stationary distribution
0.2520000000	the retrieval performance
0.2520000000	time series prediction
0.2520000000	an associative memory
0.2520000000	the advent of
0.2520000000	the out of
0.2520000000	from incomplete data
0.2520000000	so as to
0.2520000000	the introduction of
0.2520000000	the absence of
0.2520000000	compared to traditional
0.2520000000	results clearly demonstrate
0.2520000000	indexing and retrieval
0.2520000000	in comparison to
0.2520000000	a real time
0.2520000000	the strength of
0.2520000000	a pair of
0.2520000000	a list of
0.2520000000	bias and variance
0.2520000000	questions about images
0.2520000000	the kronecker product
0.2520000000	the contribution of
0.2520000000	the original data
0.2520000000	the emergence of
0.2520000000	the extent to
0.2520000000	each step of
0.2520000000	a mixture of
0.2520000000	the experiments show
0.2520000000	a measure of
0.2520000000	the calibration of
0.2520000000	to end in
0.2520000000	and robustness of
0.2520000000	the rest of
0.2520000000	the availability of
0.2520000000	the majority of
0.2520000000	that of
0.2520000000	among others
0.2520000000	datasets to
0.2520000000	supervised models
0.2520000000	quite different
0.2520000000	view 3d
0.2520000000	for model
0.2520000000	travel time
0.2520000000	y x
0.2520000000	not well
0.2520000000	most of
0.2520000000	the layer
0.2520000000	the categories
0.2520000000	the derivation
0.2520000000	the average
0.2520000000	the hybrid
0.2520000000	the functional
0.2520000000	the d
0.2520000000	the largest
0.2520000000	the time
0.2520000000	optimization approaches
0.2520000000	semantics for
0.2520000000	learning objective
0.2520000000	of linear
0.2520000000	together with
0.2520000000	of prediction
0.2520000000	of neurons
0.2520000000	cnn and
0.2520000000	sentiment label
0.2520000000	cox s
0.2520000000	to make
0.2520000000	an item
0.2520000000	an appropriate
0.2520000000	an entity
0.2520000000	to find
0.2520000000	computational load
0.2520000000	nonconvex sparse
0.2520000000	and dependency
0.2520000000	part of
0.2520000000	diverse applications
0.2520000000	2017 shared
0.2520000000	and label
0.2520000000	entropy of
0.2520000000	achieved significant
0.2520000000	scene depth
0.2520000000	a hand
0.2520000000	a cnn
0.2520000000	a 3
0.2520000000	a u
0.2510000000	and long short term memory
0.2510000000	a wide variety of applications
0.2510000000	a challenging task due to
0.2510000000	the use of deep learning
0.2510000000	the art performance in terms
0.2510000000	the current state of
0.2510000000	an important role in
0.2510000000	neural network rnn and
0.2510000000	the art results on
0.2510000000	the art performance on
0.2510000000	the knowledge base and
0.2510000000	a small number of
0.2510000000	a given set of
0.2510000000	data such as images
0.2510000000	a significant improvement over
0.2510000000	complexity per iteration
0.2510000000	propose to learn
0.2510000000	np hard combinatorial
0.2510000000	to deal with
0.2510000000	the construction of
0.2510000000	the core of
0.2510000000	an analysis of
0.2510000000	in contrast to
0.2510000000	a combination of
0.2510000000	a series of
0.2510000000	a variant of
0.2510000000	the validity of
0.2510000000	the dirichlet process
0.2510000000	the success of
0.2510000000	the gap between
0.2510000000	terms of prediction
0.2510000000	as opposed to
0.2510000000	in polynomial time
0.2510000000	interest point detection
0.2510000000	machine translation nmt
0.2510000000	a family of
0.2510000000	the advantages of
0.2510000000	a lot of
0.2510000000	the relation between
0.2510000000	the power of
0.2510000000	the weight matrix
0.2510000000	probabilistic programming language
0.2510000000	a huge amount
0.2510000000	an influence diagram
0.2510000000	the impact of
0.2510000000	a generalization of
0.2510000000	the necessary and
0.2510000000	a range of
0.2510000000	a subset of
0.2510000000	a probabilistic framework
0.2510000000	relu activation function
0.2510000000	a class of
0.2510000000	the relationship between
0.2510000000	liu et al
0.2510000000	a bridge between
0.2510000000	the existence of
0.2510000000	residual networks resnets
0.2510000000	fine grained classification
0.2510000000	the notion of
0.2510000000	power of deep
0.2510000000	a collection of
0.2510000000	the advantage of
0.2510000000	the lack of
0.2510000000	algorithm for computing
0.2510000000	the utility of
0.2510000000	the applicability of
0.2510000000	on top of
0.2510000000	more important than
0.2510000000	the benefits of
0.2510000000	the well known
0.2510000000	the difference between
0.2510000000	the natural language
0.2510000000	wide area
0.2510000000	highly beneficial
0.2510000000	this and
0.2510000000	dl models
0.2510000000	this metric
0.2510000000	characterization of
0.2510000000	mixed signal
0.2510000000	face parsing
0.2510000000	empirical success
0.2510000000	p norms
0.2510000000	as one
0.2510000000	single channel
0.2510000000	supervised approaches
0.2510000000	scale variations
0.2510000000	background information
0.2510000000	resolution imagery
0.2510000000	2016 shared
0.2510000000	neighbor rule
0.2510000000	linguistic style
0.2510000000	coefficient matrix
0.2510000000	nervous system
0.2510000000	matrix with
0.2510000000	expert annotations
0.2510000000	the videos
0.2510000000	ann search
0.2510000000	qa system
0.2510000000	the missing
0.2510000000	symbolic rules
0.2510000000	the decoding
0.2510000000	the system
0.2510000000	the laplacian
0.2510000000	the approximate
0.2510000000	the parser
0.2510000000	the localization
0.2510000000	the polarity
0.2510000000	the positive
0.2510000000	shafer theory
0.2510000000	learning on
0.2510000000	neurons in
0.2510000000	linear gaussian
0.2510000000	linear transformation
0.2510000000	news corpus
0.2510000000	positive examples
0.2510000000	ligand based
0.2510000000	motion trajectories
0.2510000000	of 1
0.2510000000	contrastive estimation
0.2510000000	more and
0.2510000000	clustering of
0.2510000000	human demonstrations
0.2510000000	of sparse
0.2510000000	paper advocates
0.2510000000	graphs and
0.2510000000	randomized algorithms
0.2510000000	efficiently computed
0.2510000000	issues involved
0.2510000000	sample compression
0.2510000000	data for
0.2510000000	an anytime
0.2510000000	treatment effect
0.2510000000	segment level
0.2510000000	within class
0.2510000000	description language
0.2510000000	extremely efficient
0.2510000000	features including
0.2510000000	assistance systems
0.2510000000	missing pixels
0.2510000000	concept extraction
0.2510000000	o d
0.2510000000	dung s
0.2510000000	absolute values
0.2510000000	access control
0.2510000000	cluster sizes
0.2510000000	non destructive
0.2510000000	non deterministic
0.2510000000	and robotics
0.2510000000	convolutional recurrent
0.2510000000	convolutional kernels
0.2510000000	networks nns
0.2510000000	meaningful clusters
0.2510000000	limited resources
0.2510000000	function class
0.2510000000	a three
0.2500000000	the long short term memory
0.2500000000	the special case of
0.2500000000	freely available at https
0.2500000000	structure and parameters of
0.2500000000	a very challenging task
0.2500000000	a generative model of
0.2500000000	the input and output
0.2500000000	analysis of 3d
0.2500000000	hybrid monte carlo
0.2500000000	and k means
0.2500000000	hot research topic
0.2500000000	computational complexity of
0.2500000000	an external memory
0.2500000000	the ucf 101
0.2500000000	the regression model
0.2500000000	problem at hand
0.2500000000	structured sparsity inducing
0.2500000000	a toolkit for
0.2500000000	pascal voc dataset
0.2500000000	the annotation of
0.2500000000	however most of
0.2500000000	the limits of
0.2500000000	the order in
0.2500000000	the square of
0.2500000000	the markov blanket
0.2500000000	for continuous data
0.2500000000	by doing so
0.2500000000	proposed to solve
0.2500000000	the art algorithm
0.2500000000	direct supervision
0.2500000000	algorithm in
0.2500000000	layer perceptron
0.2500000000	adaptive thresholding
0.2500000000	higher accuracies
0.2500000000	quantitative evaluations
0.2500000000	mixed effects
0.2500000000	explicit supervision
0.2500000000	this dataset
0.2500000000	nonparametric mixture
0.2500000000	statistically independent
0.2500000000	network 3d
0.2500000000	node attributes
0.2500000000	image colorization
0.2500000000	ontology driven
0.2500000000	evidence suggests
0.2500000000	node degree
0.2500000000	newly defined
0.2500000000	spatial domain
0.2500000000	spatial pooling
0.2500000000	dependency length
0.2500000000	policy network
0.2500000000	reward signals
0.2500000000	for machine
0.2500000000	workshop on
0.2500000000	test datasets
0.2500000000	code length
0.2500000000	internet users
0.2500000000	visualization tool
0.2500000000	x 0
0.2500000000	annotation projection
0.2500000000	the plan
0.2500000000	the prototype
0.2500000000	the tool
0.2500000000	longer term
0.2500000000	the complex
0.2500000000	the new
0.2500000000	the negative
0.2500000000	the arm
0.2500000000	the whole
0.2500000000	discriminative patches
0.2500000000	weak assumptions
0.2500000000	make use
0.2500000000	pair encoding
0.2500000000	learning srl
0.2500000000	f1 measure
0.2500000000	earlier works
0.2500000000	substantially outperform
0.2500000000	squared distance
0.2500000000	close connections
0.2500000000	of user
0.2500000000	of zipf
0.2500000000	level 2
0.2500000000	shape registration
0.2500000000	euclidean metric
0.2500000000	lasso regularization
0.2500000000	valued images
0.2500000000	universal consistency
0.2500000000	truth annotations
0.2500000000	an undirected
0.2500000000	based dependency
0.2500000000	data fidelity
0.2500000000	dnn architectures
0.2500000000	fitness values
0.2500000000	external factors
0.2500000000	project aims
0.2500000000	sqrt 2
0.2500000000	translation rotation
0.2500000000	connectivity patterns
0.2500000000	considerable success
0.2500000000	images to
0.2500000000	component wise
0.2500000000	scaling factor
0.2500000000	numerical stability
0.2500000000	biomedical domain
0.2500000000	approach obtains
0.2500000000	gaussian kernels
0.2500000000	video and
0.2500000000	labeled faces
0.2500000000	label assignment
0.2500000000	intrinsic geometric
0.2500000000	interactive evolutionary
0.2500000000	loop control
0.2500000000	scene completion
0.2500000000	rank 1
0.2500000000	multiple classifiers
0.2500000000	in social
0.2500000000	a robot
0.2500000000	detection applications
0.2500000000	corresponding to
0.2500000000	a sparse
0.2500000000	in other
0.2490000000	convergence rate of o 1
0.2490000000	widely used in computer vision
0.2490000000	areas of computer science
0.2490000000	the posterior distribution of
0.2490000000	works well in practice
0.2490000000	based recurrent neural network
0.2490000000	the last few decades
0.2490000000	the art results for
0.2490000000	the temporal dynamics of
0.2490000000	consists of two main
0.2490000000	consists of two components
0.2490000000	convex and non convex
0.2490000000	bag of words representation
0.2490000000	number of time steps
0.2490000000	linear and non linear
0.2490000000	a new framework for
0.2490000000	optimal or near optimal
0.2490000000	the inclusion of
0.2490000000	natural language nl
0.2490000000	parts of objects
0.2490000000	approach to natural
0.2490000000	family of algorithms
0.2490000000	simple and easy
0.2490000000	structure and parameters
0.2490000000	deal with large
0.2490000000	of length n
0.2490000000	experiments on synthetic
0.2490000000	the separation of
0.2490000000	the conditions under
0.2490000000	methods in order
0.2490000000	low dimensional manifold
0.2490000000	with or without
0.2490000000	with regard to
0.2490000000	the log of
0.2490000000	error rate wer
0.2490000000	terms of speed
0.2490000000	a plethora of
0.2490000000	data mining technique
0.2490000000	variational auto encoder
0.2490000000	the health of
0.2490000000	neural networks snns
0.2490000000	significantly more accurate
0.2490000000	capable of generating
0.2490000000	a need for
0.2490000000	of particular interest
0.2490000000	layer neural network
0.2490000000	images in order
0.2490000000	a simple yet
0.2490000000	approach in order
0.2490000000	random fields mrf
0.2490000000	at time t
0.2490000000	heterogeneous networks
0.2490000000	model hmm
0.2490000000	model parallelism
0.2490000000	illumination changes
0.2490000000	this model
0.2490000000	sampling technique
0.2490000000	visual input
0.2490000000	single classifier
0.2490000000	image embeddings
0.2490000000	two different
0.2490000000	algorithms presented
0.2490000000	case analysis
0.2490000000	ranking of
0.2490000000	mesh networks
0.2490000000	section 2
0.2490000000	event data
0.2490000000	spatial configurations
0.2490000000	beta distribution
0.2490000000	promising solutions
0.2490000000	polynomial kernels
0.2490000000	covariance selection
0.2490000000	sacrificing accuracy
0.2490000000	existing 3d
0.2490000000	existing face
0.2490000000	the semi
0.2490000000	the bottom
0.2490000000	dense labeling
0.2490000000	context model
0.2490000000	learning cost
0.2490000000	learning linear
0.2490000000	learning automata
0.2490000000	operating conditions
0.2490000000	top n
0.2490000000	of sampling
0.2490000000	independence relations
0.2490000000	fully trainable
0.2490000000	looking at
0.2490000000	bits per
0.2490000000	knn based
0.2490000000	recent successes
0.2490000000	automatically inferred
0.2490000000	data manifold
0.2490000000	these rules
0.2490000000	doing so
0.2490000000	based recognition
0.2490000000	based summarization
0.2490000000	based parsing
0.2490000000	unit norm
0.2490000000	space filling
0.2490000000	graph mining
0.2490000000	key element
0.2490000000	multi language
0.2490000000	enhanced image
0.2490000000	finite samples
0.2490000000	maximization problem
0.2490000000	random subspace
0.2490000000	directional recurrent
0.2490000000	n and
0.2490000000	short answer
0.2490000000	text analytics
0.2490000000	probabilistic networks
0.2490000000	noisy web
0.2490000000	in machine
0.2490000000	mixing matrix
0.2490000000	multiple persons
0.2490000000	interesting insights
0.2480000000	a novel recurrent neural network
0.2480000000	attention in recent years
0.2480000000	high dimensional data analysis
0.2480000000	the stable model semantics
0.2480000000	a single 2d image
0.2480000000	a high degree of
0.2480000000	the vc dimension of
0.2480000000	theoretical and experimental results
0.2480000000	by taking advantage of
0.2480000000	problems in computer vision
0.2480000000	the reduction of
0.2480000000	used to compute
0.2480000000	achieve better performance
0.2480000000	finite mixture models
0.2480000000	the training phase
0.2480000000	design and implementation
0.2480000000	accurate and reliable
0.2480000000	experiments on real
0.2480000000	scale to large
0.2480000000	linear and non
0.2480000000	deep generative model
0.2480000000	graphical model selection
0.2480000000	different levels of
0.2480000000	set of 3d
0.2480000000	accuracy in terms
0.2480000000	the primate visual
0.2480000000	stochastic optimization algorithms
0.2480000000	both global and
0.2480000000	point cloud registration
0.2480000000	training and evaluation
0.2480000000	a b testing
0.2480000000	for real time
0.2480000000	semi supervised deep
0.2480000000	correlation coefficients
0.2480000000	direct access
0.2480000000	nonlinear transformations
0.2480000000	subgradient methods
0.2480000000	applications such
0.2480000000	influence functions
0.2480000000	virtual environment
0.2480000000	supplementary information
0.2480000000	public databases
0.2480000000	keyframe based
0.2480000000	rigid objects
0.2480000000	practical situations
0.2480000000	ontology languages
0.2480000000	image domains
0.2480000000	parts of
0.2480000000	visual scenes
0.2480000000	parallel implementations
0.2480000000	comprehensive review
0.2480000000	newly designed
0.2480000000	research projects
0.2480000000	law distribution
0.2480000000	for spectral
0.2480000000	brings together
0.2480000000	perturbation theory
0.2480000000	occlusion reasoning
0.2480000000	multiplier method
0.2480000000	called textit
0.2480000000	annotated image
0.2480000000	popularly used
0.2480000000	relevance score
0.2480000000	matrix representing
0.2480000000	database systems
0.2480000000	the applications
0.2480000000	biological evolution
0.2480000000	mainly focuses
0.2480000000	the alignment
0.2480000000	the supply
0.2480000000	the languages
0.2480000000	the connections
0.2480000000	contributions include
0.2480000000	matrix learning
0.2480000000	hog features
0.2480000000	local model
0.2480000000	learning workloads
0.2480000000	intermediate layers
0.2480000000	continuous data
0.2480000000	typically involve
0.2480000000	small sized
0.2480000000	accelerometer data
0.2480000000	hopfield networks
0.2480000000	dominant sets
0.2480000000	sum game
0.2480000000	handcrafted feature
0.2480000000	operating points
0.2480000000	sensor measurements
0.2480000000	semantic indexing
0.2480000000	representation formalisms
0.2480000000	undirected graph
0.2480000000	concise representation
0.2480000000	of victory
0.2480000000	cnn activations
0.2480000000	human shape
0.2480000000	edge image
0.2480000000	q learning
0.2480000000	inherent uncertainty
0.2480000000	to refine
0.2480000000	data vector
0.2480000000	automatically discovered
0.2480000000	automatically identifies
0.2480000000	robust sparse
0.2480000000	data contamination
0.2480000000	angle based
0.2480000000	blurry image
0.2480000000	density model
0.2480000000	static environments
0.2480000000	mathematical expression
0.2480000000	epsilon n
0.2480000000	computational complexities
0.2480000000	features and
0.2480000000	physical robot
0.2480000000	entropy criterion
0.2480000000	video analytics
0.2480000000	ai community
0.2480000000	object detections
0.2480000000	allocation problem
0.2480000000	accurately detect
0.2480000000	interesting connections
0.2480000000	easy access
0.2480000000	a label
0.2480000000	in target
0.2480000000	segmentation quality
0.2480000000	none of
0.2480000000	multiple resolutions
0.2480000000	problem tsp
0.2480000000	analysis cca
0.2470000000	the use of neural networks
0.2470000000	and real world data sets
0.2470000000	k nearest neighbor k nn
0.2470000000	a logic for reasoning about
0.2470000000	a wide class of
0.2470000000	the space of possible
0.2470000000	the main contributions of
0.2470000000	trained and evaluated on
0.2470000000	machine learning methods for
0.2470000000	the automatic recognition of
0.2470000000	a comparative study of
0.2470000000	a group of agents
0.2470000000	interpreted in terms
0.2470000000	without resorting to
0.2470000000	information in order
0.2470000000	using natural language
0.2470000000	the membership functions
0.2470000000	lead to poor
0.2470000000	significantly better performance
0.2470000000	the implications of
0.2470000000	small and large
0.2470000000	the essence of
0.2470000000	substantial improvements over
0.2470000000	the primal and
0.2470000000	the exponential loss
0.2470000000	the saliency map
0.2470000000	publicly available benchmark
0.2470000000	terms of number
0.2470000000	success of deep
0.2470000000	number of iterations
0.2470000000	the details of
0.2470000000	leads to significant
0.2470000000	method in terms
0.2470000000	advances in deep
0.2470000000	a multitude of
0.2470000000	texture and shape
0.2470000000	achieves better performance
0.2470000000	top 5 accuracy
0.2470000000	lstm neural networks
0.2470000000	based on generative
0.2470000000	the concepts of
0.2470000000	capable of handling
0.2470000000	mining and machine
0.2470000000	this results in
0.2470000000	word and phrase
0.2470000000	algorithms in order
0.2470000000	the enhancement of
0.2470000000	approach in terms
0.2470000000	state of art
0.2470000000	shown to perform
0.2470000000	shown to outperform
0.2470000000	union of low
0.2470000000	image as input
0.2470000000	results on synthetic
0.2470000000	algorithm for large
0.2470000000	the current frame
0.2470000000	different architectures
0.2470000000	supervised data
0.2470000000	as much
0.2470000000	until now
0.2470000000	each domain
0.2470000000	many areas
0.2470000000	each label
0.2470000000	dependency relations
0.2470000000	the different
0.2470000000	the roc
0.2470000000	the gray
0.2470000000	the 1
0.2470000000	existing deep
0.2470000000	the quantification
0.2470000000	the eye
0.2470000000	the simulated
0.2470000000	the emph
0.2470000000	linear svms
0.2470000000	svhn datasets
0.2470000000	using two
0.2470000000	very useful
0.2470000000	level video
0.2470000000	of english
0.2470000000	kernel two
0.2470000000	to integrate
0.2470000000	images in
0.2470000000	probabilistic network
0.2470000000	well as
0.2470000000	probability map
0.2470000000	drop in
0.2470000000	or more
0.2470000000	d sqrt
0.2470000000	segmentation performance
0.2470000000	a need
0.2460000000	the theory of belief functions
0.2460000000	the well founded semantics
0.2460000000	outperforms other state of
0.2460000000	logic for reasoning about
0.2460000000	n log n for
0.2460000000	between x and y
0.2460000000	the vanishing gradient problem
0.2460000000	a central role in
0.2460000000	a constraint satisfaction problem
0.2460000000	a probabilistic framework for
0.2460000000	the quadratic assignment problem
0.2460000000	method to deal
0.2460000000	advantages in terms
0.2460000000	bag of visual
0.2460000000	code and trained
0.2460000000	approaches in terms
0.2460000000	mathcal o k
0.2460000000	quasi newton algorithm
0.2460000000	trained and evaluated
0.2460000000	the edges of
0.2460000000	the relations between
0.2460000000	polynomial time approximation
0.2460000000	sparse and low
0.2460000000	runs in polynomial
0.2460000000	processing and machine
0.2460000000	belief network dbn
0.2460000000	optimal with respect
0.2460000000	significantly better results
0.2460000000	models with hidden
0.2460000000	runs in real
0.2460000000	approach to clustering
0.2460000000	methods to deal
0.2460000000	unsupervised anomaly detection
0.2460000000	optimal in terms
0.2460000000	representation of 3d
0.2460000000	robust with respect
0.2460000000	results in comparison
0.2460000000	the popularity of
0.2460000000	experiments on simulated
0.2460000000	systems in terms
0.2460000000	supervised and semi
0.2460000000	signal and image
0.2460000000	regret with respect
0.2460000000	defined in terms
0.2460000000	defined with respect
0.2460000000	methods in terms
0.2460000000	baselines in terms
0.2460000000	ground truth annotations
0.2460000000	publicly available data
0.2460000000	terms of classification
0.2460000000	order to obtain
0.2460000000	bleu points over
0.2460000000	formulated in terms
0.2460000000	temporal receptive fields
0.2460000000	character recognition ocr
0.2460000000	number of trainable
0.2460000000	performance with respect
0.2460000000	number of hidden
0.2460000000	efficient in terms
0.2460000000	expressed in terms
0.2460000000	dense optical flow
0.2460000000	achieves better results
0.2460000000	advances in machine
0.2460000000	a tool for
0.2460000000	characterized in terms
0.2460000000	ad hoc networks
0.2460000000	shrinkage and selection
0.2460000000	performance as compared
0.2460000000	unsupervised and semi
0.2460000000	statistics and machine
0.2460000000	linear programming ilp
0.2460000000	the minimum number
0.2460000000	real time 3d
0.2460000000	inference in graphical
0.2460000000	based on machine
0.2460000000	based on neural
0.2460000000	based on deep
0.2460000000	problem in terms
0.2460000000	regularized optimal transport
0.2460000000	the required number
0.2460000000	the proposed estimator
0.2460000000	improvement in terms
0.2460000000	models in terms
0.2460000000	model in terms
0.2460000000	training neural networks
0.2460000000	compact binary codes
0.2460000000	detection and semantic
0.2460000000	open source python
0.2460000000	representing and reasoning
0.2460000000	solved in polynomial
0.2460000000	run in real
0.2460000000	algorithms in terms
0.2460000000	fine grained categories
0.2460000000	the stochastic block
0.2460000000	shown to lead
0.2460000000	becoming increasingly popular
0.2460000000	sparsity and low
0.2460000000	directions for future
0.2460000000	the pose of
0.2460000000	compared in terms
0.2460000000	algorithm for solving
0.2460000000	performance in terms
0.2460000000	applications in machine
0.2460000000	algorithm for learning
0.2460000000	networks for object
0.2460000000	low and high
0.2460000000	proposed to deal
0.2460000000	classification and semantic
0.2460000000	applied to large
0.2460000000	the model parameters
0.2460000000	measured in terms
0.2460000000	results with respect
0.2460000000	invariant with respect
0.2460000000	algorithm recovers
0.2460000000	highly subjective
0.2460000000	wide spectrum
0.2460000000	desired property
0.2460000000	size grows
0.2460000000	refinement step
0.2460000000	free grammar
0.2460000000	both classification
0.2460000000	model ensemble
0.2460000000	users preferences
0.2460000000	formal description
0.2460000000	sentence completion
0.2460000000	answer queries
0.2460000000	mixed graphical
0.2460000000	routing problems
0.2460000000	rigid object
0.2460000000	practical usefulness
0.2460000000	convex penalty
0.2460000000	strong correlations
0.2460000000	extended abstract
0.2460000000	network bn
0.2460000000	single trial
0.2460000000	raw pixel
0.2460000000	natural speech
0.2460000000	parallel and
0.2460000000	distributional similarity
0.2460000000	invariant kernels
0.2460000000	point features
0.2460000000	plan generation
0.2460000000	facial appearance
0.2460000000	equilibrium distribution
0.2460000000	argumentation theory
0.2460000000	linguistic annotations
0.2460000000	view stereo
0.2460000000	spatial configuration
0.2460000000	research interests
0.2460000000	gradient flow
0.2460000000	ordering constraints
0.2460000000	linguistic annotation
0.2460000000	offline setting
0.2460000000	chain code
0.2460000000	descriptor matching
0.2460000000	usage mining
0.2460000000	shown impressive
0.2460000000	varying length
0.2460000000	widely utilized
0.2460000000	never seen
0.2460000000	mcmc algorithm
0.2460000000	slam system
0.2460000000	parametric family
0.2460000000	the descriptors
0.2460000000	qa task
0.2460000000	the small
0.2460000000	qa datasets
0.2460000000	audio signal
0.2460000000	tracking and
0.2460000000	bidirectional recurrent
0.2460000000	the states
0.2460000000	confidence levels
0.2460000000	the soft
0.2460000000	the nuclear
0.2460000000	the buyer
0.2460000000	online adaptation
0.2460000000	main motivation
0.2460000000	the topological
0.2460000000	small perturbation
0.2460000000	driven fashion
0.2460000000	controlled environment
0.2460000000	continuous bag
0.2460000000	programming relaxation
0.2460000000	rich contextual
0.2460000000	programming platform
0.2460000000	path length
0.2460000000	optimization pso
0.2460000000	sufficient condition
0.2460000000	descent directions
0.2460000000	deconvolutional network
0.2460000000	observable variables
0.2460000000	occurrence patterns
0.2460000000	result holds
0.2460000000	edge aware
0.2460000000	partial feedback
0.2460000000	variation denoising
0.2460000000	fully observable
0.2460000000	perceptual similarity
0.2460000000	lstm units
0.2460000000	motion tracking
0.2460000000	lstm encoder
0.2460000000	relevant documents
0.2460000000	human expertise
0.2460000000	representation to
0.2460000000	frame wise
0.2460000000	augmentation strategy
0.2460000000	of answer
0.2460000000	automatic music
0.2460000000	human centered
0.2460000000	of problems
0.2460000000	extreme points
0.2460000000	implicit regularization
0.2460000000	kernel and
0.2460000000	kernel size
0.2460000000	early stage
0.2460000000	extreme cases
0.2460000000	stein s
0.2460000000	words phrases
0.2460000000	conditional dependence
0.2460000000	ir images
0.2460000000	distinct characteristics
0.2460000000	easily interpretable
0.2460000000	light sources
0.2460000000	membership stochastic
0.2460000000	rgbd images
0.2460000000	acyclic graph
0.2460000000	projection matrices
0.2460000000	age related
0.2460000000	content recommendation
0.2460000000	target position
0.2460000000	gait analysis
0.2460000000	poses challenges
0.2460000000	power spectrum
0.2460000000	large displacement
0.2460000000	poor generalization
0.2460000000	converge faster
0.2460000000	power grid
0.2460000000	character embedding
0.2460000000	ocr accuracy
0.2460000000	ocr systems
0.2460000000	8 bit
0.2460000000	version space
0.2460000000	related tweets
0.2460000000	physical interactions
0.2460000000	likelihood maximization
0.2460000000	reference frame
0.2460000000	fusion schemes
0.2460000000	log normal
0.2460000000	similarity information
0.2460000000	large margins
0.2460000000	fruits and
0.2460000000	greedy policy
0.2460000000	rendered images
0.2460000000	arcade learning
0.2460000000	initialization scheme
0.2460000000	networks resnets
0.2460000000	random process
0.2460000000	gan architectures
0.2460000000	non stationarity
0.2460000000	perform similarly
0.2460000000	label dependencies
0.2460000000	entropy principle
0.2460000000	with more
0.2460000000	with very
0.2460000000	neural information
0.2460000000	guided policy
0.2460000000	object tracker
0.2460000000	average recall
0.2460000000	video streaming
0.2460000000	programs with
0.2460000000	mri reconstruction
0.2460000000	authentication systems
0.2460000000	quantization step
0.2460000000	remove noise
0.2460000000	unlabeled videos
0.2460000000	accurately classify
0.2460000000	imaging devices
0.2460000000	pruning strategy
0.2460000000	cross channel
0.2460000000	controller design
0.2460000000	document similarity
0.2460000000	length scales
0.2460000000	a density
0.2460000000	converges faster
0.2450000000	convolutional neural networks cnn for
0.2450000000	the computational efficiency of
0.2450000000	training and testing data
0.2450000000	a growing interest in
0.2450000000	the ability to learn
0.2450000000	in contrast to previous
0.2450000000	a significant impact on
0.2450000000	a diverse set of
0.2450000000	the matrix completion problem
0.2450000000	discriminant analysis lda
0.2450000000	the energy efficiency
0.2450000000	fisher discriminant analysis
0.2450000000	sliding window approach
0.2450000000	a category of
0.2450000000	a novel way
0.2450000000	reweighted least squares
0.2450000000	the elements in
0.2450000000	networks with relu
0.2450000000	well suited to
0.2450000000	the law of
0.2450000000	a new definition
0.2450000000	the generator and
0.2450000000	neural networks to
0.2450000000	the interest of
0.2450000000	the backbone of
0.2450000000	models in order
0.2450000000	the algorithm s
0.2450000000	the family of
0.2450000000	the boundaries of
0.2450000000	reinforcement learning problems
0.2450000000	kl divergence between
0.2450000000	pixel wise labeling
0.2450000000	catastrophic forgetting in
0.2450000000	presence of noise
0.2450000000	low rank and
0.2450000000	total variation denoising
0.2450000000	features in order
0.2450000000	a single depth
0.2450000000	convolutional sparse coding
0.2450000000	the graph laplacian
0.2450000000	the model and
0.2450000000	individual neurons
0.2450000000	sub optimal
0.2450000000	primary goal
0.2450000000	major difficulty
0.2450000000	shows excellent
0.2450000000	infrared images
0.2450000000	recognition pipeline
0.2450000000	sentence pair
0.2450000000	norm regularized
0.2450000000	combinatorial nature
0.2450000000	rigorous theoretical
0.2450000000	theoretical arguments
0.2450000000	datasets confirm
0.2450000000	network dqn
0.2450000000	high angular
0.2450000000	visual contents
0.2450000000	p 0
0.2450000000	ranking measures
0.2450000000	3d surface
0.2450000000	dimensional regime
0.2450000000	negative sentiment
0.2450000000	greatly reduce
0.2450000000	transformation invariant
0.2450000000	research questions
0.2450000000	degree polynomial
0.2450000000	k sat
0.2450000000	chain rule
0.2450000000	unknown reward
0.2450000000	linguistic units
0.2450000000	each action
0.2450000000	conducting experiments
0.2450000000	dissimilarity space
0.2450000000	zipf s
0.2450000000	extra cost
0.2450000000	certain types
0.2450000000	annotated resources
0.2450000000	the node
0.2450000000	the paradigm
0.2450000000	penalty parameter
0.2450000000	the preference
0.2450000000	the fast
0.2450000000	the visible
0.2450000000	posterior variance
0.2450000000	main reasons
0.2450000000	operations research
0.2450000000	achieve impressive
0.2450000000	memory space
0.2450000000	hypothesis density
0.2450000000	learning curves
0.2450000000	feature reuse
0.2450000000	causal relationship
0.2450000000	speech segments
0.2450000000	volumetric representation
0.2450000000	perspective projection
0.2450000000	semantic content
0.2450000000	level prediction
0.2450000000	evaluation protocol
0.2450000000	of nodes
0.2450000000	fully understood
0.2450000000	of random
0.2450000000	of weights
0.2450000000	of multi
0.2450000000	of sentences
0.2450000000	state information
0.2450000000	more amenable
0.2450000000	diffusion processes
0.2450000000	intensity values
0.2450000000	data settings
0.2450000000	lasso and
0.2450000000	practically important
0.2450000000	automatically selected
0.2450000000	directly predicts
0.2450000000	to further
0.2450000000	camera sensors
0.2450000000	consistent estimator
0.2450000000	static camera
0.2450000000	unit propagation
0.2450000000	concept learning
0.2450000000	related features
0.2450000000	shift reduce
0.2450000000	relative position
0.2450000000	hierarchical structures
0.2450000000	entity pairs
0.2450000000	original data
0.2450000000	entity embedding
0.2450000000	challenges involved
0.2450000000	life scenarios
0.2450000000	entropy regularized
0.2450000000	synthesized images
0.2450000000	unlabeled video
0.2450000000	classical chinese
0.2450000000	videos captured
0.2450000000	rgb and
0.2450000000	colony optimization
0.2450000000	a lexicon
0.2450000000	a domain
0.2450000000	accurately predicting
0.2450000000	rgb depth
0.2450000000	poisson distribution
0.2440000000	long short term memory blstm
0.2440000000	the probability density function
0.2440000000	o sqrt t regret
0.2440000000	a key component of
0.2440000000	a deep convolutional network
0.2440000000	the marginal distribution of
0.2440000000	models as well
0.2440000000	more or less
0.2440000000	the time complexity
0.2440000000	4d light field
0.2440000000	a given image
0.2440000000	robust face recognition
0.2440000000	ground truth annotation
0.2440000000	in light of
0.2440000000	less sensitive to
0.2440000000	the reasons for
0.2440000000	for sentiment classification
0.2440000000	feature selection algorithms
0.2440000000	high level visual
0.2440000000	a sample of
0.2440000000	a classification problem
0.2440000000	convolutional networks convnets
0.2440000000	l2 1 norm
0.2440000000	the strengths of
0.2440000000	features as well
0.2440000000	degraded images
0.2440000000	algorithm involves
0.2440000000	behavior data
0.2440000000	seen as
0.2440000000	algorithm and
0.2440000000	solving constrained
0.2440000000	gained attention
0.2440000000	image recovery
0.2440000000	face dataset
0.2440000000	stage wise
0.2440000000	unsupervised cross
0.2440000000	single word
0.2440000000	ranking models
0.2440000000	background regions
0.2440000000	sources such
0.2440000000	for stochastic
0.2440000000	reduction problem
0.2440000000	domain agnostic
0.2440000000	each topic
0.2440000000	2d 3d
0.2440000000	near neighbor
0.2440000000	process model
0.2440000000	the scalability
0.2440000000	the expected
0.2440000000	the fly
0.2440000000	the better
0.2440000000	the hough
0.2440000000	the hierarchy
0.2440000000	group level
0.2440000000	the finite
0.2440000000	linear interpolation
0.2440000000	pattern discovery
0.2440000000	sets such
0.2440000000	approximate recovery
0.2440000000	learning by
0.2440000000	learning applications
0.2440000000	edge based
0.2440000000	action sequence
0.2440000000	of users
0.2440000000	of evidence
0.2440000000	particularly interested
0.2440000000	of qualitative
0.2440000000	shape model
0.2440000000	any number
0.2440000000	to do
0.2440000000	meanings of
0.2440000000	based representation
0.2440000000	an argument
0.2440000000	world image
0.2440000000	weighted version
0.2440000000	boolean constraints
0.2440000000	provide valuable
0.2440000000	ensemble clustering
0.2440000000	theoretic planning
0.2440000000	images and
0.2440000000	distinctive feature
0.2440000000	networks rnns
0.2440000000	critical decisions
0.2440000000	object shape
0.2440000000	synthetic experiments
0.2440000000	and with
0.2440000000	downstream applications
0.2440000000	hierarchical sparse
0.2440000000	attribute recognition
0.2440000000	apart from
0.2440000000	available at
0.2440000000	multiple variables
0.2440000000	in 0
0.2440000000	1 d
0.2440000000	design problems
0.2430000000	an approach based on
0.2430000000	by making use of
0.2430000000	the number of parameters
0.2430000000	cause effect relationships
0.2430000000	the costs of
0.2430000000	more robust than
0.2430000000	unlike existing methods
0.2430000000	the training samples
0.2430000000	methods for clustering
0.2430000000	a distance function
0.2430000000	a pre defined
0.2430000000	the word level
0.2430000000	big data analytics
0.2430000000	low dimensional structure
0.2430000000	number of atoms
0.2430000000	scale and multi
0.2430000000	the lower level
0.2430000000	probabilistic topic models
0.2430000000	penn treebank and
0.2430000000	set of solutions
0.2430000000	zero sum games
0.2430000000	real time face
0.2430000000	an iterative procedure
0.2430000000	a worst case
0.2430000000	a large amount
0.2430000000	image and video
0.2430000000	the atari 2600
0.2430000000	performance of algorithms
0.2430000000	performs favorably against
0.2430000000	the underlying graph
0.2430000000	directed information
0.2430000000	used as
0.2430000000	shared representations
0.2430000000	word and
0.2430000000	depth sensing
0.2430000000	dependent random
0.2430000000	image in
0.2430000000	visual observations
0.2430000000	hybrid loss
0.2430000000	set to
0.2430000000	vision models
0.2430000000	theory of
0.2430000000	the least
0.2430000000	y t
0.2430000000	parametric density
0.2430000000	need to
0.2430000000	the characteristics
0.2430000000	the environment
0.2430000000	the contribution
0.2430000000	the mode
0.2430000000	learning network
0.2430000000	learning architecture
0.2430000000	information geometry
0.2430000000	binary tree
0.2430000000	all agents
0.2430000000	i j
0.2430000000	of lexical
0.2430000000	complexity theory
0.2430000000	of kernels
0.2430000000	often used
0.2430000000	variable size
0.2430000000	locally optimal
0.2430000000	provide extensive
0.2430000000	idea behind
0.2430000000	achieved excellent
0.2430000000	text classifier
0.2430000000	classification in
0.2430000000	brain structures
0.2430000000	and topic
0.2430000000	connectionist model
0.2430000000	in most
0.2430000000	a much
0.2430000000	a first
0.2430000000	a relatively
0.2430000000	a well
0.2420000000	the long short term memory lstm
0.2420000000	methods in terms of accuracy
0.2420000000	multi armed bandit problem with
0.2420000000	a novel deep learning based
0.2420000000	deep convolutional neural network based
0.2420000000	a novel neural network model
0.2420000000	the training and testing
0.2420000000	the deep q network
0.2420000000	the prediction accuracy of
0.2420000000	neural word embeddings
0.2420000000	maximum likelihood estimators
0.2420000000	language processing tools
0.2420000000	the training dataset
0.2420000000	object detection task
0.2420000000	transfer learning methods
0.2420000000	the manner of
0.2420000000	final saliency map
0.2420000000	difficult to train
0.2420000000	number of image
0.2420000000	order to improve
0.2420000000	number of classes
0.2420000000	deep transfer learning
0.2420000000	bayesian neural networks
0.2420000000	set of labels
0.2420000000	a translation of
0.2420000000	the body of
0.2420000000	deep representation learning
0.2420000000	the english language
0.2420000000	object recognition and
0.2420000000	neural networks with
0.2420000000	neural networks provide
0.2420000000	learning based techniques
0.2420000000	layer feed forward
0.2420000000	the method of
0.2420000000	the l0 norm
0.2420000000	the input to
0.2420000000	feature learning methods
0.2420000000	constant step size
0.2420000000	nearest neighbor classifier
0.2420000000	learned classifier
0.2420000000	free learning
0.2420000000	tune parameters
0.2420000000	algorithm ea
0.2420000000	sparse image
0.2420000000	recognition in
0.2420000000	model class
0.2420000000	descriptors extracted
0.2420000000	start and
0.2420000000	scale object
0.2420000000	dependent regret
0.2420000000	single object
0.2420000000	scale inference
0.2420000000	visual turing
0.2420000000	image decomposition
0.2420000000	unsupervised video
0.2420000000	network dynamics
0.2420000000	language and
0.2420000000	dimensional embedding
0.2420000000	statistical query
0.2420000000	deep layer
0.2420000000	domain and
0.2420000000	each time
0.2420000000	each user
0.2420000000	examples in
0.2420000000	w i
0.2420000000	tracking problem
0.2420000000	confidence score
0.2420000000	central idea
0.2420000000	matrix sensing
0.2420000000	discovering latent
0.2420000000	planning system
0.2420000000	the hierarchical
0.2420000000	central issue
0.2420000000	reiter s
0.2420000000	planning algorithms
0.2420000000	association studies
0.2420000000	limiting case
0.2420000000	feature analysis
0.2420000000	pca algorithm
0.2420000000	memory intensive
0.2420000000	embedding learning
0.2420000000	binary weights
0.2420000000	deconvolutional networks
0.2420000000	very different
0.2420000000	matching results
0.2420000000	sensing data
0.2420000000	semantic label
0.2420000000	action dataset
0.2420000000	recently released
0.2420000000	of gene
0.2420000000	graphs such
0.2420000000	clustering schemes
0.2420000000	based alignment
0.2420000000	unique characteristics
0.2420000000	significant speedup
0.2420000000	latent representation
0.2420000000	parsing model
0.2420000000	events such
0.2420000000	input domain
0.2420000000	digital video
0.2420000000	capacity constraints
0.2420000000	selection rule
0.2420000000	ensemble model
0.2420000000	physical interaction
0.2420000000	margin classifiers
0.2420000000	type methods
0.2420000000	sparsity pattern
0.2420000000	current video
0.2420000000	likelihood estimator
0.2420000000	large high
0.2420000000	providing insights
0.2420000000	pixel classification
0.2420000000	optimality conditions
0.2420000000	prove bounds
0.2420000000	initial population
0.2420000000	random choice
0.2420000000	basic unit
0.2420000000	neural symbolic
0.2420000000	perform favorably
0.2420000000	text and
0.2420000000	classification noise
0.2420000000	text description
0.2420000000	attribute space
0.2420000000	reconstructed image
0.2420000000	end to
0.2420000000	temporal features
0.2420000000	scene image
0.2420000000	body models
0.2420000000	preserving image
0.2420000000	a two
0.2420000000	cross database
0.2420000000	under certain
0.2420000000	run times
0.2420000000	variational expectation
0.2420000000	partially specified
0.2410000000	the perceptual quality of
0.2410000000	in image processing and
0.2410000000	the data generating distribution
0.2410000000	the encoder and decoder
0.2410000000	method for solving
0.2410000000	to compensate for
0.2410000000	a max margin
0.2410000000	point and line
0.2410000000	notion of regret
0.2410000000	an approximation to
0.2410000000	a bipartite graph
0.2410000000	many practical applications
0.2410000000	number of subspaces
0.2410000000	types of datasets
0.2410000000	set of classes
0.2410000000	the curvature of
0.2410000000	set of representative
0.2410000000	textual and visual
0.2410000000	the coordinates of
0.2410000000	frac 1 2
0.2410000000	recent work in
0.2410000000	a decision maker
0.2410000000	kernel two sample
0.2410000000	the problem as
0.2410000000	definition of causality
0.2410000000	a ranking of
0.2410000000	english texts
0.2410000000	primary focus
0.2410000000	software systems
0.2410000000	user preference
0.2410000000	learned dictionaries
0.2410000000	this limitation
0.2410000000	recognition from
0.2410000000	users and
0.2410000000	functional form
0.2410000000	network using
0.2410000000	language utterances
0.2410000000	dual formulation
0.2410000000	strong evidence
0.2410000000	discrete valued
0.2410000000	event sequences
0.2410000000	exponential increase
0.2410000000	order derivative
0.2410000000	commonly employed
0.2410000000	however most
0.2410000000	parametric assumptions
0.2410000000	the abstract
0.2410000000	the law
0.2410000000	the ri
0.2410000000	the expression
0.2410000000	inter agent
0.2410000000	the joint
0.2410000000	the technique
0.2410000000	the non
0.2410000000	the hmm
0.2410000000	the noisy
0.2410000000	systems and
0.2410000000	not able
0.2410000000	the indus
0.2410000000	the expense
0.2410000000	the activity
0.2410000000	the geodesic
0.2410000000	intermediate layer
0.2410000000	such high
0.2410000000	learning drl
0.2410000000	color contrast
0.2410000000	search in
0.2410000000	arbitrarily complex
0.2410000000	motion of
0.2410000000	very difficult
0.2410000000	auxiliary loss
0.2410000000	of em
0.2410000000	of propositional
0.2410000000	motion and
0.2410000000	shot transfer
0.2410000000	shape completion
0.2410000000	to human
0.2410000000	these types
0.2410000000	mimic human
0.2410000000	se 3
0.2410000000	valued vectors
0.2410000000	recent trend
0.2410000000	while most
0.2410000000	se models
0.2410000000	declarative knowledge
0.2410000000	lattice structure
0.2410000000	camera captured
0.2410000000	citation networks
0.2410000000	transaction data
0.2410000000	quickly identify
0.2410000000	risk aware
0.2410000000	entity embeddings
0.2410000000	50 000
0.2410000000	diverse sources
0.2410000000	error and
0.2410000000	text messages
0.2410000000	classification benchmarks
0.2410000000	temporal window
0.2410000000	short range
0.2410000000	n epsilon
0.2410000000	asymptotic bounds
0.2410000000	deterministic actions
0.2410000000	probability estimation
0.2410000000	logical rules
0.2410000000	tractable classes
0.2410000000	a role
0.2410000000	a non
0.2410000000	in vector
0.2410000000	increasing depth
0.2410000000	unpaired data
0.2410000000	a closed
0.2410000000	multiple gpus
0.2410000000	without affecting
0.2410000000	analysis ica
0.2410000000	monocular video
0.2400000000	necessary and sufficient conditions for
0.2400000000	an in depth analysis of
0.2400000000	a novel algorithm for
0.2400000000	from electronic health records
0.2400000000	performance of deep learning
0.2400000000	the good performance of
0.2400000000	on several benchmark datasets
0.2400000000	the last decades
0.2400000000	amount of time
0.2400000000	language independent and
0.2400000000	the solution space
0.2400000000	the speech signal
0.2400000000	order to achieve
0.2400000000	the structure and
0.2400000000	a balance between
0.2400000000	in o n
0.2400000000	the necessity of
0.2400000000	the union of
0.2400000000	thermal face images
0.2400000000	reinforcement learning drl
0.2400000000	both convex and
0.2400000000	sqrt log n
0.2400000000	naturally represented
0.2400000000	both color
0.2400000000	accuracy drop
0.2400000000	fft based
0.2400000000	model by
0.2400000000	user behaviors
0.2400000000	reduce false
0.2400000000	distribution dependent
0.2400000000	systematically evaluate
0.2400000000	for categorical
0.2400000000	foreground detection
0.2400000000	the estimates
0.2400000000	the theorem
0.2400000000	growth rate
0.2400000000	the propagation
0.2400000000	the ms
0.2400000000	the approaches
0.2400000000	the restoration
0.2400000000	the bioasq
0.2400000000	consistently improves
0.2400000000	the layers
0.2400000000	the synthesis
0.2400000000	the degrees
0.2400000000	the severity
0.2400000000	context in
0.2400000000	feature weighting
0.2400000000	hypothesis spaces
0.2400000000	structure prediction
0.2400000000	joint distributions
0.2400000000	learning with
0.2400000000	programming interface
0.2400000000	close relationship
0.2400000000	generated data
0.2400000000	of svm
0.2400000000	of logic
0.2400000000	clustering on
0.2400000000	substantially faster
0.2400000000	determining whether
0.2400000000	to look
0.2400000000	give rise
0.2400000000	marker less
0.2400000000	provide strong
0.2400000000	relatedness between
0.2400000000	tensor power
0.2400000000	mass functions
0.2400000000	dataset and
0.2400000000	range data
0.2400000000	nmt system
0.2400000000	temporal constraints
0.2400000000	with bandit
0.2400000000	with ell
0.2400000000	segmentation from
0.2400000000	a subspace
0.2400000000	in two
0.2400000000	a bound
0.2400000000	a discourse
0.2400000000	a recently
0.2390000000	the number of nodes in
0.2390000000	a trained neural network
0.2390000000	the art methods on
0.2390000000	the k nearest neighbor
0.2390000000	the vast amount
0.2390000000	the standard deviation
0.2390000000	matrix factorization methods
0.2390000000	other state of
0.2390000000	the minimizer of
0.2390000000	such as face
0.2390000000	the first and
0.2390000000	trained to predict
0.2390000000	low dimensional data
0.2390000000	theory of deep
0.2390000000	the axioms of
0.2390000000	short and long
0.2390000000	linear dynamical systems
0.2390000000	amounts of data
0.2390000000	a sparse representation
0.2390000000	a simple algorithm
0.2390000000	stochastic gradient based
0.2390000000	the difference in
0.2390000000	combinatorial prediction
0.2390000000	recognition data
0.2390000000	surface area
0.2390000000	nonlinear features
0.2390000000	sparse gp
0.2390000000	gather information
0.2390000000	adaptive computation
0.2390000000	sparse regularization
0.2390000000	left n
0.2390000000	functional brain
0.2390000000	relational model
0.2390000000	geometric transformation
0.2390000000	emerging field
0.2390000000	algorithms gas
0.2390000000	visual system
0.2390000000	distribution functions
0.2390000000	point algorithm
0.2390000000	3d geometry
0.2390000000	acoustic and
0.2390000000	set classification
0.2390000000	k center
0.2390000000	deep layers
0.2390000000	linguistic variation
0.2390000000	for matrix
0.2390000000	for hyperspectral
0.2390000000	for vision
0.2390000000	each group
0.2390000000	exponentially fast
0.2390000000	the vocabulary
0.2390000000	the need
0.2390000000	the amount
0.2390000000	the causes
0.2390000000	the help
0.2390000000	inference in
0.2390000000	the qualitative
0.2390000000	focus images
0.2390000000	the domains
0.2390000000	local properties
0.2390000000	long history
0.2390000000	action pairs
0.2390000000	mnist database
0.2390000000	human operator
0.2390000000	evaluation data
0.2390000000	propose neural
0.2390000000	of stochastic
0.2390000000	facilitate future
0.2390000000	of methods
0.2390000000	of memory
0.2390000000	of query
0.2390000000	partial observation
0.2390000000	adaboost algorithm
0.2390000000	interpolate between
0.2390000000	edge density
0.2390000000	spectral gap
0.2390000000	words to
0.2390000000	parsing and
0.2390000000	class variation
0.2390000000	pose problem
0.2390000000	real environment
0.2390000000	automatically discovering
0.2390000000	based programming
0.2390000000	based graph
0.2390000000	data term
0.2390000000	based scene
0.2390000000	an area
0.2390000000	singular vector
0.2390000000	pairwise learning
0.2390000000	world state
0.2390000000	yield better
0.2390000000	rl problem
0.2390000000	eigenvalue problem
0.2390000000	dynamic objects
0.2390000000	features of
0.2390000000	tumor classification
0.2390000000	target variables
0.2390000000	cognitive state
0.2390000000	task consists
0.2390000000	content information
0.2390000000	going beyond
0.2390000000	temporal expression
0.2390000000	forward model
0.2390000000	entropy distribution
0.2390000000	cluster structures
0.2390000000	fused together
0.2390000000	convolutional feature
0.2390000000	networks with
0.2390000000	classification of
0.2390000000	minimal assumptions
0.2390000000	text translation
0.2390000000	and number
0.2390000000	forward search
0.2390000000	label embeddings
0.2390000000	intelligence ai
0.2390000000	scene content
0.2390000000	segmentation with
0.2390000000	in at
0.2390000000	weight functions
0.2390000000	multiple camera
0.2390000000	in 3d
0.2390000000	a given
0.2390000000	a product
0.2390000000	cross covariance
0.2380000000	and one based on
0.2380000000	large amount of training
0.2380000000	experiments on several benchmark
0.2380000000	perform significantly better than
0.2380000000	the power of deep
0.2380000000	a significant improvement in
0.2380000000	the generalization of
0.2380000000	the training and
0.2380000000	active learning strategy
0.2380000000	group activity recognition
0.2380000000	linear system identification
0.2380000000	a gan based
0.2380000000	monte carlo sampling
0.2380000000	complexity of inference
0.2380000000	magnetic resonance image
0.2380000000	level of noise
0.2380000000	networks from scratch
0.2380000000	set of objects
0.2380000000	densely connected convolutional
0.2380000000	data mining methods
0.2380000000	based only on
0.2380000000	domain adaptation algorithms
0.2380000000	mid level representation
0.2380000000	segmentation and tracking
0.2380000000	feature selection problem
0.2380000000	image processing pipeline
0.2380000000	for pedestrian detection
0.2380000000	a large data
0.2380000000	the mixture of
0.2380000000	the realm of
0.2380000000	the distance to
0.2380000000	the variance in
0.2380000000	the presented method
0.2380000000	neural network training
0.2380000000	hard optimization problems
0.2380000000	agnostic learning
0.2380000000	sparse vector
0.2380000000	recognition asr
0.2380000000	nonlinear transformation
0.2380000000	clinical data
0.2380000000	quantitative metrics
0.2380000000	jointly optimizing
0.2380000000	nonlinear models
0.2380000000	generative networks
0.2380000000	vector product
0.2380000000	word image
0.2380000000	biased random
0.2380000000	virtual adversarial
0.2380000000	asp based
0.2380000000	image clustering
0.2380000000	registration problems
0.2380000000	image intensities
0.2380000000	face shapes
0.2380000000	unsupervised segmentation
0.2380000000	much harder
0.2380000000	image measurements
0.2380000000	reasoning process
0.2380000000	theoretical explanation
0.2380000000	prediction intervals
0.2380000000	visual learning
0.2380000000	stochastic setting
0.2380000000	newly developed
0.2380000000	ranking data
0.2380000000	perceptron neural
0.2380000000	correct answer
0.2380000000	3d motion
0.2380000000	geometric interpretation
0.2380000000	comparative studies
0.2380000000	cancer classification
0.2380000000	restoration methods
0.2380000000	minimum weight
0.2380000000	health conditions
0.2380000000	32 bit
0.2380000000	test image
0.2380000000	reduction approach
0.2380000000	minimum risk
0.2380000000	set programming
0.2380000000	domain question
0.2380000000	each item
0.2380000000	ml techniques
0.2380000000	for generative
0.2380000000	shown remarkable
0.2380000000	for feature
0.2380000000	widely explored
0.2380000000	edges represent
0.2380000000	slam systems
0.2380000000	regulatory networks
0.2380000000	confidence regions
0.2380000000	simulation models
0.2380000000	posterior density
0.2380000000	systems perform
0.2380000000	parametric approaches
0.2380000000	database management
0.2380000000	database consisting
0.2380000000	block size
0.2380000000	central role
0.2380000000	the means
0.2380000000	the interpretability
0.2380000000	the single
0.2380000000	the minimal
0.2380000000	the requirements
0.2380000000	selective search
0.2380000000	the variations
0.2380000000	the objectives
0.2380000000	confidence measures
0.2380000000	online tracking
0.2380000000	medium scale
0.2380000000	attractive properties
0.2380000000	sensitive features
0.2380000000	forest classifier
0.2380000000	optimization tasks
0.2380000000	stationary distribution
0.2380000000	stationary data
0.2380000000	linear correlation
0.2380000000	hidden topics
0.2380000000	feature elimination
0.2380000000	binary embedding
0.2380000000	transformer network
0.2380000000	low memory
0.2380000000	siamese convolutional
0.2380000000	of hidden
0.2380000000	of first
0.2380000000	human mind
0.2380000000	multimodal data
0.2380000000	of cnns
0.2380000000	surrogate functions
0.2380000000	human expert
0.2380000000	substantial reduction
0.2380000000	human knowledge
0.2380000000	clustering process
0.2380000000	google search
0.2380000000	diffusion model
0.2380000000	kernel mean
0.2380000000	substantially reduce
0.2380000000	squares method
0.2380000000	extract meaningful
0.2380000000	latent codes
0.2380000000	easily integrated
0.2380000000	focused mainly
0.2380000000	based cameras
0.2380000000	based visual
0.2380000000	an inference
0.2380000000	based matching
0.2380000000	based meta
0.2380000000	robust feature
0.2380000000	input graph
0.2380000000	genre classification
0.2380000000	selection schemes
0.2380000000	at different
0.2380000000	identification based
0.2380000000	static scene
0.2380000000	paired images
0.2380000000	adversarial autoencoder
0.2380000000	adversarial models
0.2380000000	demonstrated experimentally
0.2380000000	requires fewer
0.2380000000	at risk
0.2380000000	graph search
0.2380000000	description length
0.2380000000	choice questions
0.2380000000	pixel labeling
0.2380000000	biomedical text
0.2380000000	multimedia data
0.2380000000	minimal change
0.2380000000	temporal point
0.2380000000	recommendation algorithms
0.2380000000	initial segmentation
0.2380000000	normal vectors
0.2380000000	attribute based
0.2380000000	and logic
0.2380000000	backbone network
0.2380000000	fmri datasets
0.2380000000	classification function
0.2380000000	and visual
0.2380000000	basic elements
0.2380000000	video description
0.2380000000	video search
0.2380000000	temporal ordering
0.2380000000	allocation problems
0.2380000000	body motion
0.2380000000	multiclass learning
0.2380000000	variational method
0.2380000000	medical expert
0.2380000000	in high
0.2380000000	multiple graphs
0.2380000000	segmentation approaches
0.2380000000	effectively utilize
0.2380000000	function learning
0.2380000000	a frame
0.2380000000	function parameters
0.2380000000	output variables
0.2380000000	in bayesian
0.2380000000	design space
0.2380000000	design optimization
0.2380000000	detection tools
0.2380000000	vehicle control
0.2380000000	financial data
0.2370000000	markov chain monte carlo sampling
0.2370000000	publicly available at https github.com
0.2370000000	the art classification performance
0.2370000000	tasks such as image
0.2370000000	leave one out cross
0.2370000000	both positive and negative
0.2370000000	a formal model of
0.2370000000	the theoretical properties of
0.2370000000	the partition function and
0.2370000000	the task of learning
0.2370000000	based neural machine translation
0.2370000000	the surface of
0.2370000000	natural language sentences
0.2370000000	based deep learning
0.2370000000	active learning al
0.2370000000	accurate and fast
0.2370000000	of image and
0.2370000000	big data applications
0.2370000000	for future research
0.2370000000	aims to provide
0.2370000000	the spatial structure
0.2370000000	not known in
0.2370000000	gradient descent sgd
0.2370000000	manifold learning algorithm
0.2370000000	conditional mutual information
0.2370000000	decision processes mdp
0.2370000000	the top ranked
0.2370000000	english machine translation
0.2370000000	a communication efficient
0.2370000000	bayesian active learning
0.2370000000	the interactions of
0.2370000000	parametric and non
0.2370000000	the translation of
0.2370000000	minimax lower bounds
0.2370000000	evolutionary algorithm ea
0.2370000000	3d face shape
0.2370000000	bounding box regression
0.2370000000	a quantum computer
0.2370000000	many objective optimization
0.2370000000	parallel coordinate descent
0.2370000000	worst case regret
0.2370000000	the microsoft kinect
0.2370000000	trained neural networks
0.2370000000	total variation minimization
0.2370000000	random fields crf
0.2370000000	a single 2d
0.2370000000	the precision matrix
0.2370000000	pac bayesian bound
0.2370000000	hopfield neural network
0.2370000000	each point in
0.2370000000	an end to
0.2370000000	neural network design
0.2370000000	question answering systems
0.2370000000	kitti dataset
0.2370000000	highly expressive
0.2370000000	nonparametric models
0.2370000000	algorithm proceeds
0.2370000000	activation patterns
0.2370000000	highly informative
0.2370000000	improve recognition
0.2370000000	adaptive threshold
0.2370000000	mobile camera
0.2370000000	primary objective
0.2370000000	gained significant
0.2370000000	english sentences
0.2370000000	additional supervision
0.2370000000	user information
0.2370000000	sub activities
0.2370000000	this algorithm
0.2370000000	regression network
0.2370000000	model updating
0.2370000000	experimental study
0.2370000000	model lm
0.2370000000	present deep
0.2370000000	bandit literature
0.2370000000	word ordering
0.2370000000	processing units
0.2370000000	relatively few
0.2370000000	vector products
0.2370000000	entire dataset
0.2370000000	norm constrained
0.2370000000	nonparametric learning
0.2370000000	egocentric images
0.2370000000	predicting missing
0.2370000000	thresholding technique
0.2370000000	rigorous evaluation
0.2370000000	geometric consistency
0.2370000000	sufficiently sparse
0.2370000000	factor matrices
0.2370000000	gpu memory
0.2370000000	fewer samples
0.2370000000	strong edges
0.2370000000	relational domains
0.2370000000	performance capture
0.2370000000	geometric relationships
0.2370000000	image classifiers
0.2370000000	theoretical models
0.2370000000	negative impact
0.2370000000	relational reasoning
0.2370000000	language interfaces
0.2370000000	computation costs
0.2370000000	skeletal data
0.2370000000	stochastic policy
0.2370000000	stochastic bandits
0.2370000000	processes involved
0.2370000000	performance degrades
0.2370000000	effort required
0.2370000000	dimensional manifolds
0.2370000000	3d skeleton
0.2370000000	sufficiently small
0.2370000000	exhibit strong
0.2370000000	gibbs distribution
0.2370000000	intelligent machines
0.2370000000	person perspective
0.2370000000	restoration quality
0.2370000000	possibility distributions
0.2370000000	realistic scenarios
0.2370000000	acceptable accuracy
0.2370000000	order potentials
0.2370000000	gabor features
0.2370000000	order derivatives
0.2370000000	deep representation
0.2370000000	gradient estimators
0.2370000000	successfully employed
0.2370000000	traffic control
0.2370000000	multilingual text
0.2370000000	modeling data
0.2370000000	sharing scheme
0.2370000000	test domain
0.2370000000	line level
0.2370000000	oriented architectures
0.2370000000	svm formulation
0.2370000000	transportation systems
0.2370000000	provably accurate
0.2370000000	hashing method
0.2370000000	important roles
0.2370000000	rate analysis
0.2370000000	posterior predictive
0.2370000000	central pattern
0.2370000000	feedback based
0.2370000000	quantitatively evaluate
0.2370000000	tracking systems
0.2370000000	the frequencies
0.2370000000	dropout technique
0.2370000000	the maximum
0.2370000000	the course
0.2370000000	the boolean
0.2370000000	the derivative
0.2370000000	process planning
0.2370000000	discriminative network
0.2370000000	algorithmic components
0.2370000000	uncertainty estimation
0.2370000000	completion algorithm
0.2370000000	intermediate step
0.2370000000	typically assume
0.2370000000	differentiable loss
0.2370000000	companion paper
0.2370000000	stationary processes
0.2370000000	attributes and
0.2370000000	feature hierarchies
0.2370000000	article introduces
0.2370000000	retrieval systems
0.2370000000	pattern completion
0.2370000000	joint locations
0.2370000000	rich linguistic
0.2370000000	learning multi
0.2370000000	transformer networks
0.2370000000	learning mtl
0.2370000000	e e
0.2370000000	constraint networks
0.2370000000	versatile framework
0.2370000000	human thought
0.2370000000	recently discovered
0.2370000000	low discrepancy
0.2370000000	of convolutional
0.2370000000	level feature
0.2370000000	paper argues
0.2370000000	stereo video
0.2370000000	early layers
0.2370000000	matching score
0.2370000000	guaranteed convergence
0.2370000000	structural svm
0.2370000000	global model
0.2370000000	semantic parser
0.2370000000	of visual
0.2370000000	of objects
0.2370000000	topic detection
0.2370000000	of gans
0.2370000000	achieves excellent
0.2370000000	importance scores
0.2370000000	human ratings
0.2370000000	human skeleton
0.2370000000	clustering approaches
0.2370000000	inverse mapping
0.2370000000	topic specific
0.2370000000	search efficiency
0.2370000000	batch learning
0.2370000000	vary significantly
0.2370000000	reconstruction pipeline
0.2370000000	grammatical structure
0.2370000000	memristor based
0.2370000000	consistency guarantees
0.2370000000	modular architecture
0.2370000000	randomized approximation
0.2370000000	described by
0.2370000000	latent semantics
0.2370000000	an introduction
0.2370000000	parameter updates
0.2370000000	parameter tractable
0.2370000000	camera location
0.2370000000	proximal point
0.2370000000	introducing additional
0.2370000000	cell images
0.2370000000	dynamic semantics
0.2370000000	requires considerable
0.2370000000	character embeddings
0.2370000000	log k
0.2370000000	approximation approach
0.2370000000	log 1
0.2370000000	exact posterior
0.2370000000	exact line
0.2370000000	by deep
0.2370000000	cognitive models
0.2370000000	scientific computing
0.2370000000	scientific literature
0.2370000000	theoretic measures
0.2370000000	optimal plans
0.2370000000	weighted sum
0.2370000000	mathematical formulation
0.2370000000	agents learn
0.2370000000	training gans
0.2370000000	locally adaptive
0.2370000000	quality data
0.2370000000	core idea
0.2370000000	biomedical research
0.2370000000	target objects
0.2370000000	constant depth
0.2370000000	similarity index
0.2370000000	selection policy
0.2370000000	selection rules
0.2370000000	evolving data
0.2370000000	equal size
0.2370000000	theoretic semantics
0.2370000000	scaling behavior
0.2370000000	n sqrt
0.2370000000	multimedia applications
0.2370000000	entropy loss
0.2370000000	pairs and
0.2370000000	networks including
0.2370000000	entropy search
0.2370000000	simulated robot
0.2370000000	downstream task
0.2370000000	commercial search
0.2370000000	and temporal
0.2370000000	predictive modelling
0.2370000000	ai agent
0.2370000000	ai applications
0.2370000000	random perturbations
0.2370000000	scene segmentation
0.2370000000	collective inference
0.2370000000	dirichlet prior
0.2370000000	quantization error
0.2370000000	problem and
0.2370000000	probability measure
0.2370000000	0 p
0.2370000000	probability assignment
0.2370000000	fundamental questions
0.2370000000	output codes
0.2370000000	in sensor
0.2370000000	digit dataset
0.2370000000	analytical solution
0.2370000000	in video
0.2370000000	selected subset
0.2370000000	a feature
0.2370000000	document frequency
0.2370000000	a time
0.2370000000	in estimation
0.2370000000	rank constraints
0.2370000000	multiple classification
0.2370000000	in action
0.2370000000	multiple meanings
0.2370000000	generalization capacity
0.2370000000	digits recognition
0.2370000000	digits dataset
0.2370000000	crf inference
0.2360000000	the regions of interest
0.2360000000	the semantic information of
0.2360000000	the left ventricle
0.2360000000	an autonomous agent
0.2360000000	information extraction and
0.2360000000	compared to standard
0.2360000000	detection of objects
0.2360000000	a particular class
0.2360000000	for english and
0.2360000000	capable of capturing
0.2360000000	belief revision and
0.2360000000	more than one
0.2360000000	the minimal number
0.2360000000	a clustering algorithm
0.2360000000	the representations learned
0.2360000000	the exploration of
0.2360000000	emotion recognition from
0.2360000000	new york times
0.2360000000	the ambient dimension
0.2360000000	convex relaxations of
0.2360000000	this theory
0.2360000000	nonlinear relationships
0.2360000000	this optimization
0.2360000000	practical applicability
0.2360000000	queries and
0.2360000000	visual understanding
0.2360000000	negative rates
0.2360000000	on mutual
0.2360000000	usage patterns
0.2360000000	dependency graphs
0.2360000000	for pixel
0.2360000000	each arm
0.2360000000	the competition
0.2360000000	phrases in
0.2360000000	the super
0.2360000000	the statistics
0.2360000000	the modified
0.2360000000	the minimization
0.2360000000	the dependency
0.2360000000	the relative
0.2360000000	the mean
0.2360000000	feedback mechanism
0.2360000000	the ucf
0.2360000000	the formula
0.2360000000	the inversion
0.2360000000	known as
0.2360000000	of dropout
0.2360000000	cnn with
0.2360000000	of parallel
0.2360000000	substantially higher
0.2360000000	of medical
0.2360000000	digital camera
0.2360000000	data as
0.2360000000	these two
0.2360000000	automatically detected
0.2360000000	these data
0.2360000000	camera sensor
0.2360000000	finite difference
0.2360000000	forward propagation
0.2360000000	and state
0.2360000000	million samples
0.2360000000	and transfer
0.2360000000	and semantic
0.2360000000	life long
0.2360000000	length minimization
0.2360000000	metric and
0.2360000000	a sufficiently
0.2360000000	a good
0.2360000000	a student
0.2360000000	a space
0.2360000000	a block
0.2360000000	a light
0.2350000000	data driven approach to
0.2350000000	outperforms previous state of
0.2350000000	data driven approach for
0.2350000000	neural network architecture for
0.2350000000	natural language understanding and
0.2350000000	low rank approximation of
0.2350000000	neural network cnn for
0.2350000000	high computational cost and
0.2350000000	the amount of information
0.2350000000	low computational cost and
0.2350000000	pre processing step in
0.2350000000	deep learning approach to
0.2350000000	neural networks trained on
0.2350000000	regularized logistic regression
0.2350000000	the layout of
0.2350000000	the backpropagation algorithm
0.2350000000	conditional independence relations
0.2350000000	l 2 regularization
0.2350000000	extrinsic calibration of
0.2350000000	3d convolutional neural
0.2350000000	the rules of
0.2350000000	a bounding box
0.2350000000	k nn classifier
0.2350000000	the batch setting
0.2350000000	the sample covariance
0.2350000000	the k nearest
0.2350000000	a database of
0.2350000000	a clustering problem
0.2350000000	the scientific community
0.2350000000	for k means
0.2350000000	information conveyed by
0.2350000000	this class
0.2350000000	testing phase
0.2350000000	one or
0.2350000000	this data
0.2350000000	technical challenge
0.2350000000	that in
0.2350000000	additional insights
0.2350000000	matrices and
0.2350000000	practical relevance
0.2350000000	theoretical investigation
0.2350000000	strong ai
0.2350000000	textual and
0.2350000000	resolution and
0.2350000000	svm and
0.2350000000	final answer
0.2350000000	the testing
0.2350000000	click through
0.2350000000	the length
0.2350000000	the self
0.2350000000	the truth
0.2350000000	the benchmark
0.2350000000	the simplest
0.2350000000	the maximization
0.2350000000	the step
0.2350000000	the unsupervised
0.2350000000	benchmarking datasets
0.2350000000	context window
0.2350000000	semantics and
0.2350000000	such data
0.2350000000	feature pyramid
0.2350000000	of convex
0.2350000000	of gaussian
0.2350000000	of patients
0.2350000000	of algorithms
0.2350000000	of p
0.2350000000	edge weighted
0.2350000000	filtered images
0.2350000000	input channels
0.2350000000	world deployment
0.2350000000	adaptation evolution
0.2350000000	questions and
0.2350000000	basic operations
0.2350000000	appearance change
0.2350000000	and object
0.2350000000	phenomena such
0.2350000000	unsolved problem
0.2350000000	a temporal
0.2350000000	a patch
0.2350000000	a value
0.2350000000	in many
0.2350000000	d and
0.2350000000	document collection
0.2350000000	problem formulation
0.2350000000	kernels for
0.2340000000	significantly outperform state of
0.2340000000	an important part of
0.2340000000	require large amounts of
0.2340000000	approach based on deep
0.2340000000	neural network architectures for
0.2340000000	high resolution images with
0.2340000000	the k means clustering
0.2340000000	a novel two stage
0.2340000000	vehicle routing problem with
0.2340000000	learning algorithms based on
0.2340000000	sorting genetic algorithm ii
0.2340000000	proposed method compared to
0.2340000000	the vertices of
0.2340000000	method for 3d
0.2340000000	the bias and
0.2340000000	the grouping of
0.2340000000	the second step
0.2340000000	representation of text
0.2340000000	an energy function
0.2340000000	a problem of
0.2340000000	the variation in
0.2340000000	the inference process
0.2340000000	the conditions for
0.2340000000	achieve good performance
0.2340000000	number of topics
0.2340000000	number of steps
0.2340000000	the approximation error
0.2340000000	the similarities of
0.2340000000	the visualization of
0.2340000000	the proposed architecture
0.2340000000	one by one
0.2340000000	on several benchmark
0.2340000000	the modeling of
0.2340000000	the original problem
0.2340000000	the weights in
0.2340000000	major limitations
0.2340000000	trained and
0.2340000000	sub networks
0.2340000000	technical conditions
0.2340000000	media content
0.2340000000	sampling of
0.2340000000	word phrase
0.2340000000	additional features
0.2340000000	spatial locations
0.2340000000	great interest
0.2340000000	for vietnamese
0.2340000000	each worker
0.2340000000	becomes increasingly
0.2340000000	multivariate time
0.2340000000	confidence measure
0.2340000000	regularized least
0.2340000000	confidence bounds
0.2340000000	the conversation
0.2340000000	the predictive
0.2340000000	the voynich
0.2340000000	the lexical
0.2340000000	the efficient
0.2340000000	the coarse
0.2340000000	the graphlab
0.2340000000	main idea
0.2340000000	the statistical
0.2340000000	the chase
0.2340000000	local patterns
0.2340000000	convergence for
0.2340000000	variation minimization
0.2340000000	of classes
0.2340000000	geq 2
0.2340000000	world applications
0.2340000000	measure and
0.2340000000	mixtures of
0.2340000000	missing observations
0.2340000000	entity types
0.2340000000	rules of
0.2340000000	games with
0.2340000000	considerably outperforms
0.2340000000	a decision
0.2340000000	sentences in
0.2340000000	a level
0.2340000000	a dnn
0.2340000000	tedious task
0.2330000000	a neural machine translation system
0.2330000000	sample complexity bounds for
0.2330000000	long term goal of
0.2330000000	hand gesture recognition system
0.2330000000	human level performance on
0.2330000000	sparse linear combinations of
0.2330000000	o n 1 2
0.2330000000	for logic programs with
0.2330000000	hand crafted features and
0.2330000000	present empirical results on
0.2330000000	achieves superior performance over
0.2330000000	neural network trained on
0.2330000000	source and target domain
0.2330000000	superior performance compared to
0.2330000000	loss function based on
0.2330000000	a case study on
0.2330000000	large scale analysis of
0.2330000000	low dimensional representation of
0.2330000000	weakly supervised learning of
0.2330000000	high level features from
0.2330000000	large scale dataset for
0.2330000000	both qualitative and quantitative
0.2330000000	low dimensional representations of
0.2330000000	provide theoretical guarantees for
0.2330000000	pre processing step for
0.2330000000	machine learning approach to
0.2330000000	generalization error bounds for
0.2330000000	machine learning approach for
0.2330000000	outperforms existing state of
0.2330000000	undirected graphical models with
0.2330000000	closed form solutions for
0.2330000000	low dimensional embedding of
0.2330000000	significant performance improvements over
0.2330000000	significant performance improvement over
0.2330000000	information theoretic approach to
0.2330000000	deep learning approach for
0.2330000000	method for large
0.2330000000	designing and training
0.2330000000	the marginal distribution
0.2330000000	this challenging problem
0.2330000000	an effective way
0.2330000000	semantic analysis lsa
0.2330000000	a significant margin
0.2330000000	for multi label
0.2330000000	the intensity of
0.2330000000	three orders of
0.2330000000	flow of information
0.2330000000	the most discriminative
0.2330000000	for community detection
0.2330000000	still far from
0.2330000000	the long run
0.2330000000	the topics of
0.2330000000	for relational data
0.2330000000	the diagnostic accuracy
0.2330000000	the answer set
0.2330000000	the steps of
0.2330000000	sparse connectivity
0.2330000000	both academia
0.2330000000	additional benefit
0.2330000000	program p
0.2330000000	samples for
0.2330000000	robotic vision
0.2330000000	strong supervision
0.2330000000	cause effect
0.2330000000	correlated variables
0.2330000000	research purposes
0.2330000000	on data
0.2330000000	for knowledge
0.2330000000	domain ontologies
0.2330000000	cascaded convolutional
0.2330000000	coefficient vector
0.2330000000	expert system
0.2330000000	the answers
0.2330000000	the hypothesis
0.2330000000	the moving
0.2330000000	pooling strategy
0.2330000000	units of
0.2330000000	positive impact
0.2330000000	smoothed analysis
0.2330000000	supervision signal
0.2330000000	comes from
0.2330000000	of bounded
0.2330000000	of texts
0.2330000000	convergence theorem
0.2330000000	co occur
0.2330000000	structural relationships
0.2330000000	world industrial
0.2330000000	an unknown
0.2330000000	an egocentric
0.2330000000	response times
0.2330000000	an action
0.2330000000	task and
0.2330000000	t rounds
0.2330000000	nonconvex functions
0.2330000000	somewhat surprisingly
0.2330000000	rules in
0.2330000000	and validation
0.2330000000	recurrent auto
0.2330000000	a structure
0.2330000000	segmentation and
0.2330000000	output spaces
0.2330000000	probability and
0.2330000000	j 1
0.2330000000	1 2
0.2330000000	in content
0.2320000000	an algorithm based on
0.2320000000	markov random fields and
0.2320000000	the reconstruction error of
0.2320000000	deep learning framework for
0.2320000000	large amount of data
0.2320000000	similarity measure based on
0.2320000000	extensive experiments conducted on
0.2320000000	the sample size n
0.2320000000	gaussian processes gp
0.2320000000	high dimensional problems
0.2320000000	the pixels in
0.2320000000	recurrent encoder decoder
0.2320000000	one hot encoding
0.2320000000	a one dimensional
0.2320000000	the constraints of
0.2320000000	the explosive growth
0.2320000000	the first approach
0.2320000000	horizon markov decision
0.2320000000	ground truth depth
0.2320000000	algorithm compares favorably
0.2320000000	the results demonstrate
0.2320000000	experimental results reveal
0.2320000000	n gram models
0.2320000000	a person s
0.2320000000	a comparison with
0.2320000000	large scale applications
0.2320000000	the system s
0.2320000000	a hierarchy of
0.2320000000	message passing algorithm
0.2320000000	gradient boosted decision
0.2320000000	highly relevant
0.2320000000	directed sampling
0.2320000000	web resources
0.2320000000	media retrieval
0.2320000000	models to
0.2320000000	boundary conditions
0.2320000000	norm of
0.2320000000	virtual objects
0.2320000000	demonstration data
0.2320000000	remains unknown
0.2320000000	s and
0.2320000000	raw speech
0.2320000000	machine learned
0.2320000000	traditional chinese
0.2320000000	2 delta
0.2320000000	image captions
0.2320000000	dual tree
0.2320000000	significantly larger
0.2320000000	manifold regularization
0.2320000000	sequence generation
0.2320000000	extensive comparisons
0.2320000000	dimension of
0.2320000000	experimentally observed
0.2320000000	dimensional vectors
0.2320000000	intelligent agent
0.2320000000	satisfactory accuracy
0.2320000000	capturing long
0.2320000000	research communities
0.2320000000	each type
0.2320000000	results of
0.2320000000	super linear
0.2320000000	offline evaluation
0.2320000000	mcmc inference
0.2320000000	regularized m
0.2320000000	role labeling
0.2320000000	crucial issue
0.2320000000	the signature
0.2320000000	the minimax
0.2320000000	rate in
0.2320000000	the general
0.2320000000	the association
0.2320000000	the aspects
0.2320000000	the normal
0.2320000000	the satisfiability
0.2320000000	incorporating additional
0.2320000000	the posterior
0.2320000000	the motivation
0.2320000000	theoretically prove
0.2320000000	paced learning
0.2320000000	rule base
0.2320000000	cost of
0.2320000000	softmax function
0.2320000000	active appearance
0.2320000000	yields superior
0.2320000000	linear mixing
0.2320000000	dense depth
0.2320000000	descent direction
0.2320000000	deeper networks
0.2320000000	information bottleneck
0.2320000000	proof procedure
0.2320000000	method to
0.2320000000	complex cells
0.2320000000	effect relationships
0.2320000000	fast rates
0.2320000000	state dependent
0.2320000000	of inference
0.2320000000	distorted image
0.2320000000	clustering coefficient
0.2320000000	paper outlines
0.2320000000	substantially improved
0.2320000000	structural risk
0.2320000000	occurrence matrix
0.2320000000	subjective evaluation
0.2320000000	opinions on
0.2320000000	an exploration
0.2320000000	camera parameters
0.2320000000	efficiently implemented
0.2320000000	distinct classes
0.2320000000	data preprocessing
0.2320000000	response maps
0.2320000000	robust reading
0.2320000000	parameter sensitivity
0.2320000000	spread function
0.2320000000	regularization schemes
0.2320000000	taught learning
0.2320000000	backpropagation algorithm
0.2320000000	finite length
0.2320000000	time polynomial
0.2320000000	power management
0.2320000000	mathematical tools
0.2320000000	computational bottleneck
0.2320000000	surveillance video
0.2320000000	approximation guarantee
0.2320000000	large problems
0.2320000000	physical environment
0.2320000000	approach exploits
0.2320000000	drift detection
0.2320000000	square loss
0.2320000000	internal structure
0.2320000000	computing platform
0.2320000000	intrinsic structures
0.2320000000	entity retrieval
0.2320000000	with and
0.2320000000	additive gaussian
0.2320000000	average case
0.2320000000	pseudo random
0.2320000000	noisy conditions
0.2320000000	interesting results
0.2320000000	a phase
0.2320000000	lower bounded
0.2320000000	completely unsupervised
0.2320000000	a brain
0.2320000000	canonical form
0.2310000000	stanford natural language inference
0.2310000000	proposed end to end
0.2310000000	fully convolutional networks for
0.2310000000	markov decision processes pomdps
0.2310000000	neural network approach to
0.2310000000	multi task learning and
0.2310000000	speech recognition asr system
0.2310000000	neural network cnn and
0.2310000000	in order to learn
0.2310000000	achieved promising results in
0.2310000000	deep convolutional features for
0.2310000000	open source implementation of
0.2310000000	the amount of data
0.2310000000	provide sufficient conditions for
0.2310000000	deep learning architecture for
0.2310000000	an actor critic
0.2310000000	data pre processing
0.2310000000	maximum likelihood estimator
0.2310000000	the energy consumption
0.2310000000	the edges in
0.2310000000	large sample limit
0.2310000000	long standing problem
0.2310000000	existing hashing methods
0.2310000000	the sparsity and
0.2310000000	ell 1 minimization
0.2310000000	the revision of
0.2310000000	on real world
0.2310000000	number of candidates
0.2310000000	for crowd counting
0.2310000000	a still image
0.2310000000	first and third
0.2310000000	proximal gradient descent
0.2310000000	a named entity
0.2310000000	logistic regression and
0.2310000000	basic building block
0.2310000000	a kernel function
0.2310000000	the new method
0.2310000000	a multi view
0.2310000000	deep residual learning
0.2310000000	large and diverse
0.2310000000	the tip of
0.2310000000	major categories
0.2310000000	acquire knowledge
0.2310000000	exploration policy
0.2310000000	combinatorial structures
0.2310000000	scale poorly
0.2310000000	semi autonomous
0.2310000000	relational similarity
0.2310000000	convex quadratic
0.2310000000	grounded language
0.2310000000	outperforms competing
0.2310000000	derive upper
0.2310000000	statistically significantly
0.2310000000	neighborhood selection
0.2310000000	experimentally evaluated
0.2310000000	dimensional projections
0.2310000000	research articles
0.2310000000	recognizing objects
0.2310000000	reward distributions
0.2310000000	essential role
0.2310000000	shown excellent
0.2310000000	report describes
0.2310000000	each word
0.2310000000	previous papers
0.2310000000	each model
0.2310000000	multidimensional space
0.2310000000	confidence values
0.2310000000	audio video
0.2310000000	mainly focused
0.2310000000	the leave
0.2310000000	the mdp
0.2310000000	the equivalent
0.2310000000	the generalized
0.2310000000	the dense
0.2310000000	the morphological
0.2310000000	autonomous agent
0.2310000000	driven discovery
0.2310000000	typically involves
0.2310000000	optimization landscape
0.2310000000	addition to
0.2310000000	detected objects
0.2310000000	of actions
0.2310000000	partial correlation
0.2310000000	marginal probability
0.2310000000	shape and
0.2310000000	hopfield model
0.2310000000	morphological segmentation
0.2310000000	broad range
0.2310000000	data with
0.2310000000	an em
0.2310000000	automatically recognize
0.2310000000	distinguishing features
0.2310000000	input perturbations
0.2310000000	total correlation
0.2310000000	approximately solve
0.2310000000	power embedded
0.2310000000	features in
0.2310000000	log factors
0.2310000000	key aspect
0.2310000000	greedy strategy
0.2310000000	extracting relevant
0.2310000000	brain signals
0.2310000000	computing devices
0.2310000000	non strongly
0.2310000000	with machine
0.2310000000	object manipulation
0.2310000000	and by
0.2310000000	and reinforcement
0.2310000000	scene elements
0.2310000000	track objects
0.2310000000	in object
0.2310000000	logical constraints
0.2310000000	medical concepts
0.2310000000	noisy sensor
0.2310000000	rank approximations
0.2310000000	a component
0.2310000000	in linear
0.2310000000	a structured
0.2310000000	nominal data
0.2310000000	pearl s
0.2300000000	the efficiency and effectiveness of
0.2300000000	variational inference algorithm for
0.2300000000	the product of two
0.2300000000	sequential data such as
0.2300000000	future research directions in
0.2300000000	image segmentation based on
0.2300000000	training neural networks with
0.2300000000	neural machine translation and
0.2300000000	a maximum likelihood
0.2300000000	the same object
0.2300000000	the roc curve
0.2300000000	from monocular video
0.2300000000	image synthesis with
0.2300000000	a reward function
0.2300000000	r m times
0.2300000000	significant improvement in
0.2300000000	ordinary least squares
0.2300000000	based on semantic
0.2300000000	classes of objects
0.2300000000	low rank tensors
0.2300000000	and law enforcement
0.2300000000	for time series
0.2300000000	symmetric matrix
0.2300000000	require manual
0.2300000000	highly heterogeneous
0.2300000000	involves finding
0.2300000000	directed generative
0.2300000000	answer pairs
0.2300000000	this knowledge
0.2300000000	accuracy degradation
0.2300000000	image using
0.2300000000	resolution 3d
0.2300000000	prediction accuracies
0.2300000000	negative effect
0.2300000000	network dcnn
0.2300000000	negative correlation
0.2300000000	for weakly
0.2300000000	oriented programming
0.2300000000	quadratic approximation
0.2300000000	the numbers
0.2300000000	the individuals
0.2300000000	signal denoising
0.2300000000	main theorem
0.2300000000	the gmm
0.2300000000	the empirical
0.2300000000	the minimum
0.2300000000	the textit
0.2300000000	the mixed
0.2300000000	term reward
0.2300000000	yields consistent
0.2300000000	methods and
0.2300000000	recall rate
0.2300000000	query document
0.2300000000	of m
0.2300000000	back projection
0.2300000000	spectral density
0.2300000000	achieving comparable
0.2300000000	lstm baseline
0.2300000000	of f
0.2300000000	of class
0.2300000000	topic discovery
0.2300000000	estimator of
0.2300000000	ascent algorithm
0.2300000000	imputation methods
0.2300000000	keyphrases from
0.2300000000	optimum solution
0.2300000000	distance and
0.2300000000	conditional dependencies
0.2300000000	sample limit
0.2300000000	automatically determined
0.2300000000	an rgb
0.2300000000	data by
0.2300000000	data preparation
0.2300000000	compressed video
0.2300000000	alternative ways
0.2300000000	dnn architecture
0.2300000000	data sparseness
0.2300000000	syntactic patterns
0.2300000000	conversational systems
0.2300000000	density estimates
0.2300000000	weighted ensemble
0.2300000000	vectors of
0.2300000000	graph topology
0.2300000000	tumor detection
0.2300000000	diverse fields
0.2300000000	and named
0.2300000000	and depth
0.2300000000	times larger
0.2300000000	in hyperspectral
0.2300000000	fundamental property
0.2300000000	function and
0.2300000000	1 ea
0.2300000000	a signal
0.2300000000	multiple modes
0.2290000000	a set of data points
0.2290000000	6d object pose estimation
0.2290000000	neural network model of
0.2290000000	the covariance matrix of
0.2290000000	proposed method on two
0.2290000000	neural networks cnn for
0.2290000000	the value function of
0.2290000000	a unified framework for
0.2290000000	the output layer of
0.2290000000	decision making process of
0.2290000000	on pascal voc 2007
0.2290000000	the simulation of
0.2290000000	the label of
0.2290000000	optimal rate of
0.2290000000	the ordering of
0.2290000000	a network of
0.2290000000	the contexts of
0.2290000000	the association of
0.2290000000	decision making under
0.2290000000	terms of reconstruction
0.2290000000	face and fingerprint
0.2290000000	the classification task
0.2290000000	a new deep
0.2290000000	white gaussian noise
0.2290000000	the activities of
0.2290000000	the variables in
0.2290000000	clustering and classification
0.2290000000	some light on
0.2290000000	negative log likelihood
0.2290000000	based on word
0.2290000000	the annotation process
0.2290000000	the density of
0.2290000000	the more general
0.2290000000	the sign of
0.2290000000	performs well on
0.2290000000	structure of data
0.2290000000	to end system
0.2290000000	major contribution
0.2290000000	fourier domain
0.2290000000	convex and
0.2290000000	3d reconstructions
0.2290000000	underlying mechanisms
0.2290000000	on detection
0.2290000000	predict 3d
0.2290000000	the numerical
0.2290000000	the update
0.2290000000	the universal
0.2290000000	the formulation
0.2290000000	l2 1
0.2290000000	achieve excellent
0.2290000000	of languages
0.2290000000	of outliers
0.2290000000	of graphical
0.2290000000	of streaming
0.2290000000	paper concludes
0.2290000000	unclear whether
0.2290000000	these constraints
0.2290000000	these functions
0.2290000000	an organism
0.2290000000	automatically segment
0.2290000000	mean absolute
0.2290000000	log b
0.2290000000	mechanisms underlying
0.2290000000	spatiotemporal feature
0.2290000000	additive and
0.2290000000	and pose
0.2290000000	manually defined
0.2290000000	poisson process
0.2290000000	a primal
0.2290000000	a deep
0.2290000000	variational posterior
0.2290000000	chaotic system
0.2280000000	experimental results obtained on
0.2280000000	many machine learning applications
0.2280000000	an efficient algorithm for
0.2280000000	many machine learning tasks
0.2280000000	for human activity recognition
0.2280000000	a semi supervised setting
0.2280000000	a semi supervised manner
0.2280000000	an alternating direction method
0.2280000000	play important roles in
0.2280000000	for generalized linear models
0.2280000000	for human action recognition
0.2280000000	proposed method performs better
0.2280000000	non convex optimization problem
0.2280000000	in image classification tasks
0.2280000000	the maximum likelihood estimator
0.2280000000	rule based expert system
0.2280000000	in modern machine learning
0.2280000000	multi task learning in
0.2280000000	shown promising results in
0.2280000000	a deep learning architecture
0.2280000000	out of vocabulary words
0.2280000000	a machine learning based
0.2280000000	a machine learning model
0.2280000000	a deeper understanding of
0.2280000000	message passing algorithm for
0.2280000000	closed form expressions for
0.2280000000	shown great potential in
0.2280000000	computer vision tasks including
0.2280000000	a restricted boltzmann machine
0.2280000000	the low level features
0.2280000000	for knowledge base completion
0.2280000000	the conditional random field
0.2280000000	only image level labels
0.2280000000	feature selection based on
0.2280000000	named entity recognition and
0.2280000000	pascal voc 2007 and
0.2280000000	image super resolution via
0.2280000000	closed form expression for
0.2280000000	ell 1 and ell
0.2280000000	compared to other methods
0.2280000000	received considerable attention in
0.2280000000	experimental results based on
0.2280000000	a reinforcement learning approach
0.2280000000	a genetic algorithm ga
0.2280000000	the high dimensional setting
0.2280000000	feature selection method for
0.2280000000	the high dimensional regime
0.2280000000	on real world data
0.2280000000	the machine learning and
0.2280000000	the machine learning literature
0.2280000000	neural networks trained with
0.2280000000	for fine grained recognition
0.2280000000	co reference resolution
0.2280000000	a d dimensional
0.2280000000	a vector of
0.2280000000	interactive evolutionary computation
0.2280000000	the potential to
0.2280000000	the information bottleneck
0.2280000000	the lengths of
0.2280000000	the exponential family
0.2280000000	the nature and
0.2280000000	ground truth labels
0.2280000000	for tasks such
0.2280000000	grows exponentially with
0.2280000000	the technique of
0.2280000000	for gender classification
0.2280000000	worst case guarantees
0.2280000000	the transition matrix
0.2280000000	fine grained action
0.2280000000	the new approach
0.2280000000	component analysis ica
0.2280000000	k th order
0.2280000000	significantly higher than
0.2280000000	multilayer perceptrons and
0.2280000000	sparse autoencoders
0.2280000000	models in
0.2280000000	categorized into
0.2280000000	every year
0.2280000000	visual categorization
0.2280000000	parallel sentences
0.2280000000	point and
0.2280000000	intelligent behavior
0.2280000000	promising direction
0.2280000000	policy in
0.2280000000	moving target
0.2280000000	resampling methods
0.2280000000	crucial role
0.2280000000	the cifar
0.2280000000	biological processes
0.2280000000	the compatibility
0.2280000000	main reason
0.2280000000	the differences
0.2280000000	the implicit
0.2280000000	the chain
0.2280000000	the slm
0.2280000000	the observations
0.2280000000	the effective
0.2280000000	score fusion
0.2280000000	linear predictors
0.2280000000	local connectivity
0.2280000000	of x
0.2280000000	showing superior
0.2280000000	of dynamical
0.2280000000	riemannian optimization
0.2280000000	an arm
0.2280000000	words and
0.2280000000	alternative direction
0.2280000000	objects and
0.2280000000	growing interest
0.2280000000	t regret
0.2280000000	mathematical tool
0.2280000000	provide guidance
0.2280000000	graph and
0.2280000000	sparsity constrained
0.2280000000	factorization of
0.2280000000	additive regression
0.2280000000	magnitude speed
0.2280000000	in neural
0.2280000000	a black
0.2280000000	a digital
0.2280000000	without knowing
0.2280000000	function satisfies
0.2270000000	on deep convolutional neural network
0.2270000000	the design and implementation of
0.2270000000	a supervised learning approach
0.2270000000	a deep network architecture
0.2270000000	of gaussian mixture models
0.2270000000	and radial basis function
0.2270000000	on benchmark datasets demonstrate
0.2270000000	markov decision processes mdp
0.2270000000	principal component analysis and
0.2270000000	an important aspect of
0.2270000000	an information theoretic approach
0.2270000000	an expectation maximization em
0.2270000000	and fully connected layers
0.2270000000	a machine learning algorithm
0.2270000000	the art neural network
0.2270000000	for large scale machine
0.2270000000	a weakly supervised manner
0.2270000000	in medical image analysis
0.2270000000	hidden markov models and
0.2270000000	no reference image quality
0.2270000000	the class labels of
0.2270000000	in real world scenarios
0.2270000000	competitive performance compared to
0.2270000000	in real world applications
0.2270000000	deep reinforcement learning for
0.2270000000	on large scale data
0.2270000000	and present experimental results
0.2270000000	and real data examples
0.2270000000	a reinforcement learning algorithm
0.2270000000	a posteriori map inference
0.2270000000	for low resource languages
0.2270000000	robustness and accuracy of
0.2270000000	for fine grained classification
0.2270000000	on benchmark data sets
0.2270000000	no spurious local
0.2270000000	propose to leverage
0.2270000000	sorting genetic algorithm
0.2270000000	ill posed problem
0.2270000000	a residual network
0.2270000000	big data era
0.2270000000	object bounding box
0.2270000000	black box functions
0.2270000000	gesture recognition using
0.2270000000	spatio temporal dynamics
0.2270000000	iterated local search
0.2270000000	a handful of
0.2270000000	the name of
0.2270000000	the needs of
0.2270000000	a technique for
0.2270000000	an off policy
0.2270000000	as low as
0.2270000000	based on clustering
0.2270000000	m times n
0.2270000000	reinforcement learning irl
0.2270000000	total variation regularization
0.2270000000	the uci repository
0.2270000000	highly interpretable
0.2270000000	software tools
0.2270000000	quantitative measures
0.2270000000	testing stage
0.2270000000	box classifiers
0.2270000000	accuracy tradeoff
0.2270000000	social influence
0.2270000000	solving combinatorial
0.2270000000	entire face
0.2270000000	word similarities
0.2270000000	word association
0.2270000000	shared layers
0.2270000000	this set
0.2270000000	norm constraint
0.2270000000	machine interfaces
0.2270000000	simultaneous clustering
0.2270000000	negative mining
0.2270000000	visual explanation
0.2270000000	textual similarity
0.2270000000	frequency components
0.2270000000	language learners
0.2270000000	frequency content
0.2270000000	negative weights
0.2270000000	layout analysis
0.2270000000	hybrid genetic
0.2270000000	spatial position
0.2270000000	from deep
0.2270000000	gradient computations
0.2270000000	gradient updates
0.2270000000	statistical dependence
0.2270000000	dependency structures
0.2270000000	provably robust
0.2270000000	expert users
0.2270000000	the simple
0.2270000000	main technical
0.2270000000	posterior regularization
0.2270000000	filter weights
0.2270000000	the calculation
0.2270000000	discriminative parts
0.2270000000	extra computational
0.2270000000	systems biology
0.2270000000	the asymmetric
0.2270000000	the naturalness
0.2270000000	surprisingly effective
0.2270000000	the entities
0.2270000000	the placement
0.2270000000	the intent
0.2270000000	symbolic representations
0.2270000000	optimization and
0.2270000000	restricted strong
0.2270000000	methods to
0.2270000000	standard backpropagation
0.2270000000	positive effect
0.2270000000	linear predictor
0.2270000000	rich languages
0.2270000000	weak convergence
0.2270000000	speech corpora
0.2270000000	of human
0.2270000000	imbalanced classification
0.2270000000	decision forest
0.2270000000	literature survey
0.2270000000	fast incremental
0.2270000000	outperforming previous
0.2270000000	of view
0.2270000000	semantic correspondence
0.2270000000	paper summarizes
0.2270000000	augmentation technique
0.2270000000	complex behaviors
0.2270000000	coding and
0.2270000000	clustering using
0.2270000000	unbalanced data
0.2270000000	argument structure
0.2270000000	structural decomposition
0.2270000000	structural characteristics
0.2270000000	structural sparsity
0.2270000000	pedestrian dataset
0.2270000000	specification language
0.2270000000	protein function
0.2270000000	formation process
0.2270000000	handle arbitrary
0.2270000000	accelerating deep
0.2270000000	anytime algorithm
0.2270000000	qualitative reasoning
0.2270000000	automatically discover
0.2270000000	pose variation
0.2270000000	maintaining similar
0.2270000000	segment objects
0.2270000000	truth labels
0.2270000000	data repositories
0.2270000000	universal approximation
0.2270000000	recent advance
0.2270000000	pairwise markov
0.2270000000	robust estimators
0.2270000000	squares support
0.2270000000	latent position
0.2270000000	pairwise distance
0.2270000000	projection free
0.2270000000	digital signal
0.2270000000	composite optimization
0.2270000000	missing labels
0.2270000000	fusion strategies
0.2270000000	physical processes
0.2270000000	aided detection
0.2270000000	t svd
0.2270000000	time o
0.2270000000	requires manual
0.2270000000	graph g
0.2270000000	representing uncertainty
0.2270000000	numerical attributes
0.2270000000	large portion
0.2270000000	key technical
0.2270000000	training on
0.2270000000	between data
0.2270000000	multi column
0.2270000000	sparsity assumptions
0.2270000000	space of
0.2270000000	reference implementation
0.2270000000	optimality properties
0.2270000000	runtime complexity
0.2270000000	measurements required
0.2270000000	neural ir
0.2270000000	unlike previously
0.2270000000	normal distributions
0.2270000000	critical issues
0.2270000000	increasingly difficult
0.2270000000	similar patches
0.2270000000	entity extraction
0.2270000000	clean images
0.2270000000	magnitude reduction
0.2270000000	candidate generation
0.2270000000	video sharing
0.2270000000	basic concepts
0.2270000000	scene interpretation
0.2270000000	favorably compared
0.2270000000	explicitly represent
0.2270000000	monitoring system
0.2270000000	fundamental concepts
0.2270000000	detailed comparison
0.2270000000	meaningful patterns
0.2270000000	suitable choice
0.2270000000	a ranking
0.2270000000	function to
0.2270000000	a dynamical
0.2270000000	generalisation performance
0.2270000000	problem on
0.2270000000	10 000
0.2270000000	rank subspace
0.2270000000	interval estimation
0.2260000000	for weakly supervised object localization
0.2260000000	convolutional neural network cnn and
0.2260000000	a latent variable model
0.2260000000	the alternating direction method
0.2260000000	in online social networks
0.2260000000	an active learning algorithm
0.2260000000	the uci machine learning
0.2260000000	a supervised learning problem
0.2260000000	in high dimensional settings
0.2260000000	a fully automatic method
0.2260000000	a fully connected layer
0.2260000000	the art classification accuracy
0.2260000000	non convex optimization problems
0.2260000000	a spiking neural network
0.2260000000	the traveling salesman problem
0.2260000000	a special type of
0.2260000000	to achieve high quality
0.2260000000	the deep learning community
0.2260000000	with limited training data
0.2260000000	to achieve high performance
0.2260000000	on standard benchmark datasets
0.2260000000	in wireless sensor networks
0.2260000000	to large data sets
0.2260000000	a radial basis function
0.2260000000	the chinese restaurant process
0.2260000000	the total variation tv
0.2260000000	markov decision process pomdp
0.2260000000	to produce high quality
0.2260000000	short term memory and
0.2260000000	the multi layer perceptron
0.2260000000	the answer set semantics
0.2260000000	to generate high quality
0.2260000000	sequential decision making problems
0.2260000000	for training neural networks
0.2260000000	on large data sets
0.2260000000	a block coordinate descent
0.2260000000	a long term memory
0.2260000000	a model based approach
0.2260000000	an encoder decoder architecture
0.2260000000	latent dirichlet allocation and
0.2260000000	a mixed integer programming
0.2260000000	a pre trained cnn
0.2260000000	for semi supervised learning
0.2260000000	the fully connected layer
0.2260000000	the fully connected layers
0.2260000000	a reinforcement learning agent
0.2260000000	the closed form solution
0.2260000000	a gaussian process gp
0.2260000000	a binary classification problem
0.2260000000	a deep belief network
0.2260000000	mean average precision map
0.2260000000	social media content
0.2260000000	long range correlations
0.2260000000	statistically significant improvement
0.2260000000	genetic algorithms ga
0.2260000000	higher order tensors
0.2260000000	social media users
0.2260000000	the image quality
0.2260000000	monte carlo techniques
0.2260000000	monte carlo inference
0.2260000000	weakly supervised manner
0.2260000000	mixture models gmm
0.2260000000	covariance matrix adaptation
0.2260000000	the condition of
0.2260000000	hilbert space embeddings
0.2260000000	distant speech recognition
0.2260000000	triplet loss function
0.2260000000	the top of
0.2260000000	the complement of
0.2260000000	spatio temporal patterns
0.2260000000	number of features
0.2260000000	remote sensing applications
0.2260000000	mirror descent algorithm
0.2260000000	neural architectures for
0.2260000000	regularized maximum likelihood
0.2260000000	ultra high dimensional
0.2260000000	traditional hand crafted
0.2260000000	and scene recognition
0.2260000000	variety of settings
0.2260000000	the requirement of
0.2260000000	a commonly used
0.2260000000	a nash equilibrium
0.2260000000	generalized belief propagation
0.2260000000	normalized mutual information
0.2260000000	large receptive fields
0.2260000000	labor intensive and
0.2260000000	soft attention mechanism
0.2260000000	at inference time
0.2260000000	classification of human
0.2260000000	english code
0.2260000000	direct comparison
0.2260000000	pre computed
0.2260000000	individual frames
0.2260000000	individual trees
0.2260000000	past years
0.2260000000	geometrical information
0.2260000000	unseen test
0.2260000000	highly compact
0.2260000000	wide margin
0.2260000000	desired output
0.2260000000	jointly estimating
0.2260000000	adaptive filters
0.2260000000	explicit regularization
0.2260000000	nonparametric prior
0.2260000000	software tool
0.2260000000	highly detailed
0.2260000000	jointly estimates
0.2260000000	involves solving
0.2260000000	major issues
0.2260000000	require expensive
0.2260000000	mobile computing
0.2260000000	software agent
0.2260000000	software components
0.2260000000	entire sequence
0.2260000000	separately trained
0.2260000000	samples needed
0.2260000000	tree nodes
0.2260000000	future events
0.2260000000	coco datasets
0.2260000000	fixed policy
0.2260000000	higher dimensions
0.2260000000	tree construction
0.2260000000	tree ensemble
0.2260000000	corpus statistics
0.2260000000	bounded noise
0.2260000000	problems encountered
0.2260000000	normalization technique
0.2260000000	quantitative comparison
0.2260000000	knowledge gained
0.2260000000	social signals
0.2260000000	trained separately
0.2260000000	major advantages
0.2260000000	user queries
0.2260000000	depth camera
0.2260000000	preliminary empirical
0.2260000000	regression coefficients
0.2260000000	feasible solution
0.2260000000	robot learns
0.2260000000	trajectory estimation
0.2260000000	faster rates
0.2260000000	practical utility
0.2260000000	theoretical contributions
0.2260000000	face expression
0.2260000000	manifold approximation
0.2260000000	mismatch problem
0.2260000000	performance drop
0.2260000000	strong guarantees
0.2260000000	practical limitations
0.2260000000	phase contrast
0.2260000000	algorithms and
0.2260000000	relational graph
0.2260000000	significantly affect
0.2260000000	stochastic distances
0.2260000000	steps required
0.2260000000	experimentally compare
0.2260000000	single neuron
0.2260000000	algorithms ga
0.2260000000	extended actions
0.2260000000	network on
0.2260000000	empirical tests
0.2260000000	single modality
0.2260000000	neighborhood search
0.2260000000	unsupervised fashion
0.2260000000	visual navigation
0.2260000000	single monocular
0.2260000000	image deformations
0.2260000000	raw video
0.2260000000	natural phenomena
0.2260000000	convex programs
0.2260000000	visual surveillance
0.2260000000	convex program
0.2260000000	parallel genetic
0.2260000000	stochastic bandit
0.2260000000	empirical bayes
0.2260000000	person tracking
0.2260000000	derive sufficient
0.2260000000	remains open
0.2260000000	frequency distributions
0.2260000000	person identification
0.2260000000	diagnostic accuracy
0.2260000000	restoration tasks
0.2260000000	minimum distance
0.2260000000	neighbor search
0.2260000000	neighbor graph
0.2260000000	realistic face
0.2260000000	order moments
0.2260000000	comprehension task
0.2260000000	hard negative
0.2260000000	unknown environments
0.2260000000	spatial dependencies
0.2260000000	spatial scales
0.2260000000	successfully learns
0.2260000000	successfully tested
0.2260000000	strongly related
0.2260000000	number restrictions
0.2260000000	underlying causal
0.2260000000	adding noise
0.2260000000	statistical independence
0.2260000000	linguistic labels
0.2260000000	report competitive
0.2260000000	scattering networks
0.2260000000	deep siamese
0.2260000000	hand tuning
0.2260000000	allowing users
0.2260000000	voc dataset
0.2260000000	great improvement
0.2260000000	unknown dynamics
0.2260000000	greatly outperforms
0.2260000000	artificial intelligent
0.2260000000	statistical analyses
0.2260000000	degree distributions
0.2260000000	alternate approach
0.2260000000	spatial transformation
0.2260000000	resources required
0.2260000000	linguistic structures
0.2260000000	from rgb
0.2260000000	exponential convergence
0.2260000000	oriented gradient
0.2260000000	generalizes previous
0.2260000000	descriptor called
0.2260000000	ray images
0.2260000000	toy problem
0.2260000000	multivariate statistical
0.2260000000	visualization technique
0.2260000000	inter related
0.2260000000	the extended
0.2260000000	makes sense
0.2260000000	the softmax
0.2260000000	published result
0.2260000000	process gp
0.2260000000	crucial component
0.2260000000	main difficulty
0.2260000000	audio processing
0.2260000000	identifying relevant
0.2260000000	the discrete
0.2260000000	unprecedented performance
0.2260000000	online bandit
0.2260000000	matrix computations
0.2260000000	the addition
0.2260000000	coordinate regression
0.2260000000	main ideas
0.2260000000	online collaborative
0.2260000000	iterative manner
0.2260000000	process mixtures
0.2260000000	relevance vector
0.2260000000	outstanding results
0.2260000000	fuse information
0.2260000000	memory access
0.2260000000	channel selection
0.2260000000	term dependency
0.2260000000	constrained maximum
0.2260000000	local contexts
0.2260000000	long run
0.2260000000	bootstrapping approach
0.2260000000	dense reconstruction
0.2260000000	rule mining
0.2260000000	score maps
0.2260000000	yields competitive
0.2260000000	automated manner
0.2260000000	languages english
0.2260000000	active regions
0.2260000000	driven manner
0.2260000000	stationary point
0.2260000000	linear integer
0.2260000000	storage complexity
0.2260000000	linear algebraic
0.2260000000	information gathered
0.2260000000	hypothesis classes
0.2260000000	causal reasoning
0.2260000000	hidden factors
0.2260000000	nodes represent
0.2260000000	feature correspondences
0.2260000000	joint posterior
0.2260000000	small patches
0.2260000000	simple modification
0.2260000000	binary encoding
0.2260000000	small numbers
0.2260000000	hypothesis generation
0.2260000000	movement detection
0.2260000000	local optimality
0.2260000000	binary coding
0.2260000000	fire detection
0.2260000000	earlier research
0.2260000000	longitudinal data
0.2260000000	limit point
0.2260000000	volumetric image
0.2260000000	priori knowledge
0.2260000000	arbitrary dimension
0.2260000000	result suggests
0.2260000000	field approximations
0.2260000000	compelling results
0.2260000000	of local
0.2260000000	achieving competitive
0.2260000000	mnist benchmark
0.2260000000	form expressions
0.2260000000	variation regularization
0.2260000000	matching scores
0.2260000000	connected layers
0.2260000000	fully characterize
0.2260000000	marginal distribution
0.2260000000	semantic cues
0.2260000000	semantic similarities
0.2260000000	convergence to
0.2260000000	contaminated data
0.2260000000	complex dynamical
0.2260000000	complex shapes
0.2260000000	fast moving
0.2260000000	of twitter
0.2260000000	achieves substantial
0.2260000000	convergence proof
0.2260000000	fully leverage
0.2260000000	fast greedy
0.2260000000	fast growing
0.2260000000	global contextual
0.2260000000	representation formalism
0.2260000000	fully integrated
0.2260000000	fully utilize
0.2260000000	of probabilistic
0.2260000000	cnn rnn
0.2260000000	of breast
0.2260000000	clustering and
0.2260000000	of robust
0.2260000000	semantic composition
0.2260000000	global descriptors
0.2260000000	relevant parts
0.2260000000	of events
0.2260000000	state fmri
0.2260000000	surrogate function
0.2260000000	complex wavelet
0.2260000000	human eye
0.2260000000	search and
0.2260000000	scalable parallel
0.2260000000	independence properties
0.2260000000	batch setting
0.2260000000	edge map
0.2260000000	index terms
0.2260000000	spectral imaging
0.2260000000	reconstruction errors
0.2260000000	incoming data
0.2260000000	disambiguation task
0.2260000000	grammatical framework
0.2260000000	stereo visual
0.2260000000	squares loss
0.2260000000	automatically infer
0.2260000000	least absolute
0.2260000000	devices e.g
0.2260000000	conditional density
0.2260000000	smoothing techniques
0.2260000000	compact cnn
0.2260000000	evolutionary strategies
0.2260000000	topology inference
0.2260000000	extract discriminative
0.2260000000	efficiently optimized
0.2260000000	unique global
0.2260000000	valued variables
0.2260000000	conditional entropy
0.2260000000	unified view
0.2260000000	generally considered
0.2260000000	compressed domain
0.2260000000	evolutionary dynamics
0.2260000000	to adversarial
0.2260000000	preprocessing techniques
0.2260000000	intensity estimation
0.2260000000	these operators
0.2260000000	automatically adapt
0.2260000000	directly optimizing
0.2260000000	directly optimize
0.2260000000	yield improved
0.2260000000	automatically generates
0.2260000000	response variable
0.2260000000	pose estimates
0.2260000000	directly outputs
0.2260000000	light conditions
0.2260000000	world robotic
0.2260000000	intensity distribution
0.2260000000	recent decades
0.2260000000	uncertain inference
0.2260000000	noise ratio
0.2260000000	significant gain
0.2260000000	automatically selecting
0.2260000000	class variability
0.2260000000	viewpoint changes
0.2260000000	standing problem
0.2260000000	ransac based
0.2260000000	rgbd data
0.2260000000	aggregation functions
0.2260000000	growing field
0.2260000000	requires expert
0.2260000000	type and
0.2260000000	consistent estimates
0.2260000000	physical constraints
0.2260000000	provide rigorous
0.2260000000	key contributions
0.2260000000	key algorithmic
0.2260000000	weighted finite
0.2260000000	range dependencies
0.2260000000	key insights
0.2260000000	prove upper
0.2260000000	related topics
0.2260000000	quality enhancement
0.2260000000	margin classifier
0.2260000000	density regions
0.2260000000	likelihood estimates
0.2260000000	sparsity driven
0.2260000000	numerical experiment
0.2260000000	labelled images
0.2260000000	sparsity constraint
0.2260000000	biomedical applications
0.2260000000	numerical precision
0.2260000000	approach to
0.2260000000	smooth convex
0.2260000000	optimal allocation
0.2260000000	computational gains
0.2260000000	authors knowledge
0.2260000000	soft clustering
0.2260000000	risk bound
0.2260000000	reference points
0.2260000000	greedy selection
0.2260000000	smooth approximation
0.2260000000	topological structure
0.2260000000	spatiotemporal features
0.2260000000	enhancement technique
0.2260000000	mental state
0.2260000000	multimedia information
0.2260000000	dirichlet distribution
0.2260000000	increasingly common
0.2260000000	stacked convolutional
0.2260000000	appearance motion
0.2260000000	magnitude improvement
0.2260000000	million parameters
0.2260000000	handwritten text
0.2260000000	rules and
0.2260000000	critical issue
0.2260000000	interactive video
0.2260000000	basic idea
0.2260000000	relative improvements
0.2260000000	previously unknown
0.2260000000	initial weights
0.2260000000	labeled instances
0.2260000000	neuronal networks
0.2260000000	gan architecture
0.2260000000	probabilistic relational
0.2260000000	measuring semantic
0.2260000000	relative importance
0.2260000000	classifier outputs
0.2260000000	bayesian logistic
0.2260000000	label consistency
0.2260000000	text from
0.2260000000	and signal
0.2260000000	common scenario
0.2260000000	temporal segment
0.2260000000	predictive uncertainty
0.2260000000	recurrent residual
0.2260000000	critical role
0.2260000000	commercial applications
0.2260000000	text written
0.2260000000	entropy regularization
0.2260000000	simulated environment
0.2260000000	probabilistic pca
0.2260000000	outperform baseline
0.2260000000	temporal pooling
0.2260000000	video cameras
0.2260000000	critical importance
0.2260000000	lagrangian method
0.2260000000	asymptotic properties
0.2260000000	mri segmentation
0.2260000000	rank frequency
0.2260000000	establish conditions
0.2260000000	effectively handle
0.2260000000	effectively combine
0.2260000000	effectively exploit
0.2260000000	logical form
0.2260000000	logical theory
0.2260000000	unlabeled target
0.2260000000	mlp network
0.2260000000	classical genetic
0.2260000000	fundamental importance
0.2260000000	metric mapping
0.2260000000	meaningful latent
0.2260000000	fundamental issue
0.2260000000	times m
0.2260000000	multiple subspaces
0.2260000000	post selection
0.2260000000	detailed empirical
0.2260000000	multiple targets
0.2260000000	classical planning
0.2260000000	a problem
0.2260000000	variational formulation
0.2260000000	a human
0.2260000000	a resource
0.2260000000	a prediction
0.2260000000	accurately capture
0.2260000000	a controller
0.2260000000	cross linguistic
0.2260000000	phrase level
0.2260000000	accurately identify
0.2260000000	lower variance
0.2260000000	detection and
0.2260000000	problem of
0.2260000000	obtain reliable
0.2260000000	maximum degree
0.2260000000	unifying framework
0.2260000000	completely random
0.2260000000	generalization errors
0.2260000000	digit classification
0.2260000000	richer information
0.2260000000	gaze information
0.2250000000	in high dimensional spaces
0.2250000000	an information theoretic framework
0.2250000000	for automatic speech recognition
0.2250000000	stochastic multi armed bandit
0.2250000000	on image classification tasks
0.2250000000	chain monte carlo methods
0.2250000000	a gaussian process prior
0.2250000000	restricted boltzmann machines and
0.2250000000	ms coco and
0.2250000000	kernel logistic regression
0.2250000000	maximum likelihood estimates
0.2250000000	deterministic policy gradient
0.2250000000	manual feature engineering
0.2250000000	this document describes
0.2250000000	in case of
0.2250000000	encoder decoder structure
0.2250000000	the generation process
0.2250000000	markov models hmms
0.2250000000	dependent dirichlet process
0.2250000000	hilbert space embedding
0.2250000000	black box function
0.2250000000	the stage of
0.2250000000	additive gaussian noise
0.2250000000	a much larger
0.2250000000	post processing steps
0.2250000000	proximal stochastic gradient
0.2250000000	the approximation of
0.2250000000	and shape of
0.2250000000	the driver s
0.2250000000	nonlinear dynamical systems
0.2250000000	mid level visual
0.2250000000	a hybrid approach
0.2250000000	artificial immune system
0.2250000000	batch gradient descent
0.2250000000	nonconvex low rank
0.2250000000	image compressive sensing
0.2250000000	low false positive
0.2250000000	log partition function
0.2250000000	cooperative multi agent
0.2250000000	neural network fcnn
0.2250000000	long term reward
0.2250000000	surface form
0.2250000000	labels and
0.2250000000	shows great
0.2250000000	adaptive exploration
0.2250000000	sparse reward
0.2250000000	major role
0.2250000000	highly flexible
0.2250000000	algorithm enjoys
0.2250000000	software implementation
0.2250000000	software defined
0.2250000000	processing stages
0.2250000000	learned policies
0.2250000000	higher degree
0.2250000000	favorable performance
0.2250000000	biased towards
0.2250000000	recognition accuracies
0.2250000000	category theory
0.2250000000	shared latent
0.2250000000	sentence structures
0.2250000000	recognition and
0.2250000000	irrelevant information
0.2250000000	individual agents
0.2250000000	tree decomposition
0.2250000000	major components
0.2250000000	adaptive fusion
0.2250000000	future actions
0.2250000000	future states
0.2250000000	entire video
0.2250000000	nonparametric clustering
0.2250000000	tends to
0.2250000000	social dynamics
0.2250000000	social web
0.2250000000	sensory information
0.2250000000	conjugate models
0.2250000000	distributional representation
0.2250000000	dimension free
0.2250000000	practical impact
0.2250000000	predicting future
0.2250000000	framework termed
0.2250000000	theoretical upper
0.2250000000	supervised fashion
0.2250000000	novel objects
0.2250000000	dependent variable
0.2250000000	empirical validation
0.2250000000	visual experience
0.2250000000	sequence length
0.2250000000	different feature
0.2250000000	stochastic policies
0.2250000000	single gpu
0.2250000000	invariant face
0.2250000000	datasets covering
0.2250000000	prediction module
0.2250000000	textual representations
0.2250000000	extensive quantitative
0.2250000000	source localization
0.2250000000	computation resources
0.2250000000	remains limited
0.2250000000	hardware architecture
0.2250000000	hardware design
0.2250000000	dimensional multivariate
0.2250000000	dimensional scaling
0.2250000000	negative values
0.2250000000	restoration problems
0.2250000000	special type
0.2250000000	underlying true
0.2250000000	spatial frequency
0.2250000000	spatial consistency
0.2250000000	spatial relationship
0.2250000000	labeling cost
0.2250000000	adding small
0.2250000000	great practical
0.2250000000	great variety
0.2250000000	great challenge
0.2250000000	expected values
0.2250000000	expected improvement
0.2250000000	gradient evaluations
0.2250000000	linguistic patterns
0.2250000000	underlying assumption
0.2250000000	unknown environment
0.2250000000	realistic samples
0.2250000000	markov property
0.2250000000	acceptable performance
0.2250000000	parameters involved
0.2250000000	control flow
0.2250000000	aware generative
0.2250000000	support recovery
0.2250000000	modeling capacity
0.2250000000	minimax optimization
0.2250000000	nlp research
0.2250000000	product kernel
0.2250000000	submodular set
0.2250000000	transportation network
0.2250000000	polynomial sample
0.2250000000	polynomial approximation
0.2250000000	covering number
0.2250000000	net architecture
0.2250000000	posterior samples
0.2250000000	segmented images
0.2250000000	the penalty
0.2250000000	detecting adversarial
0.2250000000	annotated samples
0.2250000000	symbolic representation
0.2250000000	symbolic knowledge
0.2250000000	annotation cost
0.2250000000	tracking benchmarks
0.2250000000	precision map
0.2250000000	the watermark
0.2250000000	wise loss
0.2250000000	attentive neural
0.2250000000	simulation environment
0.2250000000	database consists
0.2250000000	final layer
0.2250000000	systems operate
0.2250000000	algorithmic decision
0.2250000000	biological vision
0.2250000000	main difference
0.2250000000	consistently improve
0.2250000000	feasibility study
0.2250000000	the rows
0.2250000000	surprisingly simple
0.2250000000	incorporating temporal
0.2250000000	tuning parameter
0.2250000000	some sort
0.2250000000	online em
0.2250000000	main limitations
0.2250000000	manual selection
0.2250000000	achieve substantial
0.2250000000	binary matrices
0.2250000000	linear projections
0.2250000000	simultaneously detect
0.2250000000	memory units
0.2250000000	offers significant
0.2250000000	linear equation
0.2250000000	continuous states
0.2250000000	binary relation
0.2250000000	yields higher
0.2250000000	retrieval benchmarks
0.2250000000	intermediate level
0.2250000000	capture rich
0.2250000000	iteration cost
0.2250000000	open issues
0.2250000000	benchmark databases
0.2250000000	storage space
0.2250000000	continuous spaces
0.2250000000	local coordinate
0.2250000000	session based
0.2250000000	arbitrary graphs
0.2250000000	result demonstrates
0.2250000000	empirically observed
0.2250000000	facilitate research
0.2250000000	siamese neural
0.2250000000	connected layer
0.2250000000	fully polynomial
0.2250000000	auxiliary tasks
0.2250000000	true underlying
0.2250000000	criteria decision
0.2250000000	operating systems
0.2250000000	of complexity
0.2250000000	automatic diagnosis
0.2250000000	unconstrained optimization
0.2250000000	cnn lstm
0.2250000000	careful analysis
0.2250000000	achieving higher
0.2250000000	paper tackles
0.2250000000	study reveals
0.2250000000	level cues
0.2250000000	partial matching
0.2250000000	augmentation techniques
0.2250000000	co reference
0.2250000000	spectral regularization
0.2250000000	reality applications
0.2250000000	satisfaction problems
0.2250000000	configuration space
0.2250000000	bilinear model
0.2250000000	decoder architecture
0.2250000000	emotional state
0.2250000000	extract relevant
0.2250000000	imbalance problem
0.2250000000	sample path
0.2250000000	pairwise loss
0.2250000000	generally difficult
0.2250000000	centroid based
0.2250000000	data imputation
0.2250000000	automatically constructed
0.2250000000	inherent complexity
0.2250000000	an ai
0.2250000000	automatically classify
0.2250000000	significant effort
0.2250000000	explore exploit
0.2250000000	noise condition
0.2250000000	automatically create
0.2250000000	null model
0.2250000000	mrf model
0.2250000000	optimal treatment
0.2250000000	similarity scores
0.2250000000	fusion scheme
0.2250000000	character sequence
0.2250000000	density of
0.2250000000	constant memory
0.2250000000	asr performance
0.2250000000	interpretable representations
0.2250000000	graph completion
0.2250000000	key elements
0.2250000000	approximately optimal
0.2250000000	selection mechanisms
0.2250000000	scientific research
0.2250000000	share parameters
0.2250000000	considerable research
0.2250000000	ensemble classifier
0.2250000000	scaling properties
0.2250000000	large sized
0.2250000000	extracts features
0.2250000000	optimal threshold
0.2250000000	images from
0.2250000000	numerical evidence
0.2250000000	sparsity regularization
0.2250000000	smooth loss
0.2250000000	selection criteria
0.2250000000	cad model
0.2250000000	large populations
0.2250000000	large deviation
0.2250000000	quickly learn
0.2250000000	formulation enables
0.2250000000	huge computational
0.2250000000	exchange information
0.2250000000	curvature information
0.2250000000	biomedical images
0.2250000000	normal vector
0.2250000000	categorization tasks
0.2250000000	recurrent encoder
0.2250000000	candidate selection
0.2250000000	compositional structure
0.2250000000	computing nodes
0.2250000000	directional features
0.2250000000	candidate solution
0.2250000000	initial estimate
0.2250000000	evolution strategy
0.2250000000	outperform strong
0.2250000000	labeled graphs
0.2250000000	offer significant
0.2250000000	diverse domains
0.2250000000	clean image
0.2250000000	common subspace
0.2250000000	abstract representations
0.2250000000	and sparse
0.2250000000	and computationally
0.2250000000	video compression
0.2250000000	neural mt
0.2250000000	secondary data
0.2250000000	relative motion
0.2250000000	convolutional activations
0.2250000000	temporal differences
0.2250000000	probabilistic dependencies
0.2250000000	initial values
0.2250000000	neural circuit
0.2250000000	object shapes
0.2250000000	video coding
0.2250000000	temporal alignment
0.2250000000	hierarchical mixture
0.2250000000	temporal coding
0.2250000000	highest accuracy
0.2250000000	xml based
0.2250000000	ctc based
0.2250000000	rank matrices
0.2250000000	pruning techniques
0.2250000000	update step
0.2250000000	effectively detect
0.2250000000	rank assumption
0.2250000000	effectively extract
0.2250000000	logical properties
0.2250000000	unlabeled test
0.2250000000	multiple subjects
0.2250000000	tractable inference
0.2250000000	weight matching
0.2250000000	fundamental challenges
0.2250000000	rank constrained
0.2250000000	document embedding
0.2250000000	canonical representation
0.2250000000	rank decomposition
0.2250000000	loss surface
0.2250000000	a pattern
0.2250000000	output units
0.2250000000	cross sentence
0.2250000000	a path
0.2250000000	potential impact
0.2250000000	interesting patterns
0.2250000000	a concept
0.2250000000	fundamental question
0.2250000000	lower levels
0.2250000000	generalization guarantees
0.2250000000	proposal distribution
0.2250000000	hyperspectral datasets
0.2250000000	colony algorithm
0.2240000000	an order of magnitude faster than
0.2240000000	long short term memory lstm recurrent
0.2240000000	long short term memory lstm network
0.2240000000	deep convolutional neural networks convnets
0.2240000000	recurrent neural network rnn based
0.2240000000	recurrent neural network rnn architecture
0.2240000000	natural language processing nlp applications
0.2240000000	convolutional neural network cnn models
0.2240000000	convolutional long short term memory
0.2240000000	lstm long short term memory
0.2240000000	convolutional neural network cnn based
0.2240000000	convolutional neural network cnn model
0.2240000000	long short term memory units
0.2240000000	convolutional neural network cnn architecture
0.2240000000	convolutional recurrent neural network
0.2240000000	a significant performance improvement
0.2240000000	support vector machine classifier
0.2240000000	support vector machine classification
0.2240000000	observable markov decision process
0.2240000000	the art convolutional neural
0.2240000000	training generative adversarial networks
0.2240000000	convolutional recurrent neural networks
0.2240000000	a random forest classifier
0.2240000000	with fully convolutional networks
0.2240000000	markov random field model
0.2240000000	natural language processing techniques
0.2240000000	natural language processing task
0.2240000000	multi objective optimization problem
0.2240000000	learning deep neural networks
0.2240000000	residual convolutional neural network
0.2240000000	conditional generative adversarial network
0.2240000000	learning convolutional neural networks
0.2240000000	high dimensional data sets
0.2240000000	natural language processing applications
0.2240000000	natural language processing tools
0.2240000000	proposed method significantly improves
0.2240000000	training convolutional neural networks
0.2240000000	proposed method outperforms existing
0.2240000000	neural network based models
0.2240000000	stochastic gradient descent algorithms
0.2240000000	the art semantic segmentation
0.2240000000	stochastic gradient descent based
0.2240000000	multi task learning approach
0.2240000000	to achieve high accuracy
0.2240000000	neural network based methods
0.2240000000	multi task learning framework
0.2240000000	neural network based approach
0.2240000000	the art feature selection
0.2240000000	semi supervised learning method
0.2240000000	neural network based model
0.2240000000	the vector space model
0.2240000000	real world data demonstrate
0.2240000000	deep learning based framework
0.2240000000	deep artificial neural networks
0.2240000000	train deep neural networks
0.2240000000	recently deep neural networks
0.2240000000	recurrent convolutional neural networks
0.2240000000	deep recurrent neural network
0.2240000000	recent deep learning based
0.2240000000	structured support vector machines
0.2240000000	deep learning based method
0.2240000000	art deep neural networks
0.2240000000	convolutional neural network architecture
0.2240000000	lstm recurrent neural network
0.2240000000	convolutional neural network model
0.2240000000	convolutional neural network architectures
0.2240000000	convolutional neural network models
0.2240000000	convolutional neural network approach
0.2240000000	convolutional neural network dcnn
0.2240000000	convolutional neural network based
0.2240000000	convolutional neural network convnet
0.2240000000	linear support vector machine
0.2240000000	linear support vector machines
0.2240000000	a domain specific language
0.2240000000	deep neural networks trained
0.2240000000	recurrent neural network architectures
0.2240000000	recurrent neural network architecture
0.2240000000	bidirectional recurrent neural networks
0.2240000000	recurrent neural network model
0.2240000000	recurrent neural network models
0.2240000000	recurrent neural network based
0.2240000000	bidirectional recurrent neural network
0.2240000000	deep reinforcement learning approach
0.2240000000	deep reinforcement learning rl
0.2240000000	siamese convolutional neural network
0.2240000000	deep reinforcement learning methods
0.2240000000	deep reinforcement learning algorithm
0.2240000000	instance multi label learning
0.2240000000	reinforcement learning rl algorithms
0.2240000000	recently convolutional neural networks
0.2240000000	generative adversarial network based
0.2240000000	in different areas of
0.2240000000	based convolutional neural networks
0.2240000000	the convex hull of
0.2240000000	based convolutional neural network
0.2240000000	trained convolutional neural network
0.2240000000	deep neural network model
0.2240000000	to noise ratio snr
0.2240000000	convolutional generative adversarial networks
0.2240000000	based semi supervised learning
0.2240000000	art convolutional neural networks
0.2240000000	deep neural network models
0.2240000000	deep neural network based
0.2240000000	deep neural network training
0.2240000000	deep neural network architecture
0.2240000000	for medical image analysis
0.2240000000	training recurrent neural networks
0.2240000000	a long standing problem
0.2240000000	a computationally efficient method
0.2240000000	the frank wolfe algorithm
0.2240000000	the cross entropy loss
0.2240000000	one class support vector
0.2240000000	convolutional neural networks convnets
0.2240000000	convolutional neural networks dcnns
0.2240000000	convolutional neural networks dcnn
0.2240000000	3d human action recognition
0.2240000000	a partial differential equation
0.2240000000	distributed stochastic gradient descent
0.2240000000	mutual information based
0.2240000000	spectral clustering methods
0.2240000000	proposed method produces
0.2240000000	showing promising results
0.2240000000	mnist data set
0.2240000000	matrix factorization models
0.2240000000	higher order interactions
0.2240000000	sparse representation based
0.2240000000	cost function based
0.2240000000	based language models
0.2240000000	coordinate descent method
0.2240000000	level sentiment analysis
0.2240000000	high dimensional image
0.2240000000	method achieves significant
0.2240000000	high dimensional vectors
0.2240000000	topic modeling approaches
0.2240000000	handle missing data
0.2240000000	high dimensional space
0.2240000000	neural encoder decoder
0.2240000000	natural language tasks
0.2240000000	recent theoretical results
0.2240000000	matrix factorization model
0.2240000000	based reinforcement learning
0.2240000000	based neural networks
0.2240000000	higher level features
0.2240000000	achieves higher accuracy
0.2240000000	kernel hilbert space
0.2240000000	based neural network
0.2240000000	spectral clustering algorithm
0.2240000000	maximum likelihood method
0.2240000000	np complete problem
0.2240000000	high dimensional features
0.2240000000	achieves promising results
0.2240000000	connected neural network
0.2240000000	efficient large scale
0.2240000000	connected neural networks
0.2240000000	language processing systems
0.2240000000	high dimensional binary
0.2240000000	based loss function
0.2240000000	labeled training examples
0.2240000000	knowledge base construction
0.2240000000	gaussian process classification
0.2240000000	matrix factorization problem
0.2240000000	variational inference method
0.2240000000	distributed deep learning
0.2240000000	maximum likelihood training
0.2240000000	maximum likelihood estimate
0.2240000000	high dimensional distributions
0.2240000000	proposed method yields
0.2240000000	classical machine learning
0.2240000000	gram language model
0.2240000000	language processing applications
0.2240000000	fixed length vector
0.2240000000	coordinate descent algorithm
0.2240000000	unlike previous works
0.2240000000	maximization em algorithm
0.2240000000	language processing techniques
0.2240000000	powerful machine learning
0.2240000000	adaptive learning rate
0.2240000000	np hard problem
0.2240000000	gaussian process models
0.2240000000	gaussian process prior
0.2240000000	gaussian process based
0.2240000000	matching lower bound
0.2240000000	low power embedded
0.2240000000	natural language text
0.2240000000	information theoretic approach
0.2240000000	information theoretic limits
0.2240000000	information theoretic measures
0.2240000000	information theoretic principles
0.2240000000	linear convergence rate
0.2240000000	continuous vector space
0.2240000000	proposed method achieves
0.2240000000	proposed method outperforms
0.2240000000	proposed method improves
0.2240000000	proposed method performs
0.2240000000	proposed method achieved
0.2240000000	proposed method learns
0.2240000000	small sample size
0.2240000000	proposed neural network
0.2240000000	achieve significant improvements
0.2240000000	highly correlated with
0.2240000000	high quality solutions
0.2240000000	process mixture model
0.2240000000	high dimensional regression
0.2240000000	weakly labeled data
0.2240000000	natural language texts
0.2240000000	natural language description
0.2240000000	high dimensional sparse
0.2240000000	np hard problems
0.2240000000	high dimensional settings
0.2240000000	high quality data
0.2240000000	natural language parsing
0.2240000000	high quality images
0.2240000000	high quality results
0.2240000000	high dimensional observations
0.2240000000	high dimensional continuous
0.2240000000	high dimensional inputs
0.2240000000	high dimensional linear
0.2240000000	high dimensional regime
0.2240000000	high dimensional gaussian
0.2240000000	high dimensional classification
0.2240000000	high dimensional setting
0.2240000000	natural language questions
0.2240000000	natural language semantics
0.2240000000	natural language queries
0.2240000000	natural language interfaces
0.2240000000	natural language applications
0.2240000000	generate adversarial examples
0.2240000000	higher order markov
0.2240000000	model based approach
0.2240000000	model based approaches
0.2240000000	sparse high dimensional
0.2240000000	social media data
0.2240000000	social media text
0.2240000000	generates high quality
0.2240000000	algorithm significantly outperforms
0.2240000000	effective sample size
0.2240000000	method significantly improves
0.2240000000	decision support tool
0.2240000000	image restoration problems
0.2240000000	linear neural networks
0.2240000000	proposed algorithm achieves
0.2240000000	generating high quality
0.2240000000	conditional probability distribution
0.2240000000	conditional probability distributions
0.2240000000	preprocessing step for
0.2240000000	pattern recognition tasks
0.2240000000	handle high dimensional
0.2240000000	achieve competitive performance
0.2240000000	based learning algorithm
0.2240000000	feature based methods
0.2240000000	real data sets
0.2240000000	significant performance gain
0.2240000000	real data demonstrate
0.2240000000	based collaborative filtering
0.2240000000	data augmentation method
0.2240000000	data augmentation technique
0.2240000000	pattern recognition problems
0.2240000000	rule based systems
0.2240000000	dimensional vector spaces
0.2240000000	large sample size
0.2240000000	learning algorithm called
0.2240000000	constraint optimization problems
0.2240000000	belief propagation algorithm
0.2240000000	common machine learning
0.2240000000	previously reported results
0.2240000000	classification error rate
0.2240000000	relative error reduction
0.2240000000	real data analysis
0.2240000000	random forest classifier
0.2240000000	model significantly outperforms
0.2240000000	linear dimensionality reduction
0.2240000000	synthetic data set
0.2240000000	bayesian network models
0.2240000000	pixel level prediction
0.2240000000	object detection algorithms
0.2240000000	learning high dimensional
0.2240000000	optimization problems including
0.2240000000	supervised dimensionality reduction
0.2240000000	generating natural language
0.2240000000	proposed approach outperforms
0.2240000000	learning of visual
0.2240000000	patch based image
0.2240000000	sufficient training data
0.2240000000	convolutional feature maps
0.2240000000	data augmentation techniques
0.2240000000	random forest based
0.2240000000	video representation learning
0.2240000000	object detection tasks
0.2240000000	text mining applications
0.2240000000	simulated data sets
0.2240000000	unlike existing approaches
0.2240000000	challenging benchmark datasets
0.2240000000	real data examples
0.2240000000	synthetic data sets
0.2240000000	extremely high dimensional
0.2240000000	real data experiments
0.2240000000	approximate bayesian inference
0.2240000000	transfer learning approach
0.2240000000	provide lower bounds
0.2240000000	including deep learning
0.2240000000	learning tasks including
0.2240000000	generating adversarial examples
0.2240000000	standard benchmark datasets
0.2240000000	learning graphical models
0.2240000000	genetic algorithm based
0.2240000000	popular research topic
0.2240000000	proposed model achieves
0.2240000000	proposed model outperforms
0.2240000000	proposed model significantly
0.2240000000	additional training data
0.2240000000	proposed approach consists
0.2240000000	proposed approach achieves
0.2240000000	simple closed form
0.2240000000	proposed algorithm outperforms
0.2240000000	proposed algorithm performs
0.2240000000	learning neural network
0.2240000000	active learning approach
0.2240000000	pattern recognition techniques
0.2240000000	rule based approach
0.2240000000	the processing time
0.2240000000	improved classification accuracy
0.2240000000	high performance computing
0.2240000000	hand crafted feature
0.2240000000	transfer learning techniques
0.2240000000	dimensional vector space
0.2240000000	language model lm
0.2240000000	language model based
0.2240000000	significantly outperforms previous
0.2240000000	significantly outperforms existing
0.2240000000	empirical studies on
0.2240000000	significantly improve performance
0.2240000000	transfer learning method
0.2240000000	model significantly improves
0.2240000000	models for text
0.2240000000	adversarial domain adaptation
0.2240000000	popular machine learning
0.2240000000	representation learning methods
0.2240000000	level object segmentation
0.2240000000	global optimal solution
0.2240000000	monte carlo method
0.2240000000	super resolution algorithm
0.2240000000	important pre processing
0.2240000000	applying deep learning
0.2240000000	based optical flow
0.2240000000	simulation studies and
0.2240000000	supervised semantic segmentation
0.2240000000	based optimization algorithm
0.2240000000	finite sample analysis
0.2240000000	continuous speech recognition
0.2240000000	naive bayes and
0.2240000000	learn low dimensional
0.2240000000	provide theoretical results
0.2240000000	large neural networks
0.2240000000	representation learning approach
0.2240000000	level semantic information
0.2240000000	aware semantic segmentation
0.2240000000	conditional independence structure
0.2240000000	strongly convex optimization
0.2240000000	norm minimization problem
0.2240000000	based image analysis
0.2240000000	based image retrieval
0.2240000000	challenging real world
0.2240000000	simple genetic algorithm
0.2240000000	adversarial neural networks
0.2240000000	monte carlo methods
0.2240000000	fuzzy neural network
0.2240000000	vector space representations
0.2240000000	level language modeling
0.2240000000	representation learning models
0.2240000000	achieves significant improvement
0.2240000000	optical flow based
0.2240000000	training machine learning
0.2240000000	obtain high quality
0.2240000000	multiple views of
0.2240000000	propagation neural network
0.2240000000	provide theoretical guarantees
0.2240000000	monte carlo based
0.2240000000	convex objective function
0.2240000000	monte carlo algorithms
0.2240000000	current machine learning
0.2240000000	finally experimental results
0.2240000000	graph based method
0.2240000000	graph based approach
0.2240000000	provide users with
0.2240000000	order optimization methods
0.2240000000	digital image processing
0.2240000000	monte carlo algorithm
0.2240000000	provide high quality
0.2240000000	learning method called
0.2240000000	gradient based learning
0.2240000000	online learning setting
0.2240000000	the duration of
0.2240000000	contextual bandit problem
0.2240000000	gradient descent based
0.2240000000	gradient based methods
0.2240000000	weakly supervised segmentation
0.2240000000	weakly supervised approach
0.2240000000	big data analysis
0.2240000000	encouraging experimental results
0.2240000000	big data problems
0.2240000000	big data sets
0.2240000000	super resolution method
0.2240000000	gradient descent algorithm
0.2240000000	gradient descent method
0.2240000000	gradient descent algorithms
0.2240000000	markov models hmm
0.2240000000	gradient based method
0.2240000000	extensive experimental evaluation
0.2240000000	manifold learning algorithms
0.2240000000	conjugate gradient method
0.2240000000	purely data driven
0.2240000000	vector space model
0.2240000000	trained word embeddings
0.2240000000	knowledge representation formalisms
0.2240000000	specific training data
0.2240000000	constrained optimization problem
0.2240000000	continuous state space
0.2240000000	continuous random variables
0.2240000000	existing cnn based
0.2240000000	information extraction systems
0.2240000000	linear activation functions
0.2240000000	low dimensional subspace
0.2240000000	low dimensional features
0.2240000000	low dimensional subspaces
0.2240000000	low dimensional latent
0.2240000000	low dimensional vector
0.2240000000	low dimensional euclidean
0.2240000000	promising experimental results
0.2240000000	low dimensional space
0.2240000000	deep feed forward
0.2240000000	fully connected networks
0.2240000000	globally optimal solution
0.2240000000	semantic instance segmentation
0.2240000000	semantic segmentation tasks
0.2240000000	semantic segmentation task
0.2240000000	continuous state action
0.2240000000	decision making tasks
0.2240000000	low computational complexity
0.2240000000	uci data sets
0.2240000000	decision making processes
0.2240000000	convergence rate analysis
0.2240000000	applying machine learning
0.2240000000	fully automatic method
0.2240000000	conventional machine learning
0.2240000000	class imbalance problem
0.2240000000	based sentiment analysis
0.2240000000	vision based navigation
0.2240000000	low dimensional feature
0.2240000000	language information retrieval
0.2240000000	network architecture called
0.2240000000	swarm optimization algorithm
0.2240000000	decoder neural network
0.2240000000	low dimensional representation
0.2240000000	conditional adversarial networks
0.2240000000	multi output gaussian
0.2240000000	hierarchical recurrent neural
0.2240000000	based sparse representation
0.2240000000	bayesian matrix factorization
0.2240000000	bayesian inference algorithm
0.2240000000	probabilistic logic programming
0.2240000000	ground truth images
0.2240000000	probabilistic neural network
0.2240000000	modern deep learning
0.2240000000	character level neural
0.2240000000	video understanding challenge
0.2240000000	error rate reduction
0.2240000000	automatic evaluation metrics
0.2240000000	achieve comparable performance
0.2240000000	objective optimization problem
0.2240000000	local image features
0.2240000000	manually labeled data
0.2240000000	achieve superior performance
0.2240000000	convolutional neural net
0.2240000000	pre trained cnns
0.2240000000	results obtained on
0.2240000000	low dimensional embeddings
0.2240000000	decision making problem
0.2240000000	efficient variational inference
0.2240000000	invariant feature transform
0.2240000000	spatio temporal features
0.2240000000	pre trained deep
0.2240000000	number of domains
0.2240000000	deep boltzmann machine
0.2240000000	augmented neural networks
0.2240000000	augmented neural network
0.2240000000	pre trained cnn
0.2240000000	pre trained networks
0.2240000000	practical machine learning
0.2240000000	scale machine learning
0.2240000000	pre trained word
0.2240000000	pre trained network
0.2240000000	pre trained model
0.2240000000	signal processing tasks
0.2240000000	binary classification problems
0.2240000000	method outperforms previous
0.2240000000	supervised learning algorithm
0.2240000000	supervised learning algorithms
0.2240000000	supervised learning setting
0.2240000000	method performs favorably
0.2240000000	concentration inequalities for
0.2240000000	image feature extraction
0.2240000000	taking inspiration from
0.2240000000	scale optimization problems
0.2240000000	limited training samples
0.2240000000	spanning tree of
0.2240000000	link prediction problem
0.2240000000	bayesian linear regression
0.2240000000	hierarchical bayesian model
0.2240000000	text classification tasks
0.2240000000	probabilistic topic modeling
0.2240000000	region based convolutional
0.2240000000	variational gradient descent
0.2240000000	bayesian belief network
0.2240000000	output gaussian processes
0.2240000000	group based sparse
0.2240000000	partially labeled data
0.2240000000	post processing step
0.2240000000	medical imaging applications
0.2240000000	binary classification tasks
0.2240000000	fuzzy logic based
0.2240000000	method outperforms existing
0.2240000000	limited training data
0.2240000000	learning framework called
0.2240000000	supervised learning methods
0.2240000000	frame level features
0.2240000000	phrase based statistical
0.2240000000	link prediction task
0.2240000000	link prediction in
0.2240000000	image recognition tasks
0.2240000000	evaluation metric for
0.2240000000	signal processing techniques
0.2240000000	body pose estimation
0.2240000000	attention based model
0.2240000000	supervised learning tasks
0.2240000000	learning latent representations
0.2240000000	standard data sets
0.2240000000	proposed framework achieves
0.2240000000	proposed framework outperforms
0.2240000000	attention based neural
0.2240000000	attention based recurrent
0.2240000000	supervised learning framework
0.2240000000	binary classification problem
0.2240000000	proposed objective function
0.2240000000	group sparse representation
0.2240000000	region based image
0.2240000000	signal processing applications
0.2240000000	image retrieval task
0.2240000000	supervised learning method
0.2240000000	the answers to
0.2240000000	the distributed setting
0.2240000000	significantly improved performance
0.2240000000	modern machine learning
0.2240000000	deep cnn model
0.2240000000	deep cnn models
0.2240000000	deep cnn based
0.2240000000	supervised learning approaches
0.2240000000	discrete random variables
0.2240000000	algorithm runs in
0.2240000000	image retrieval tasks
0.2240000000	traditional machine learning
0.2240000000	invariant face recognition
0.2240000000	supervised learning problem
0.2240000000	supervised learning approach
0.2240000000	supervised learning techniques
0.2240000000	supervised learning models
0.2240000000	supervised learning problems
0.2240000000	supervised learning task
0.2240000000	single rgb image
0.2240000000	evidence lower bound
0.2240000000	experimental results demonstrated
0.2240000000	neural networks applied
0.2240000000	average error rate
0.2240000000	learn high level
0.2240000000	learning algorithms including
0.2240000000	deep learning network
0.2240000000	camera pose estimation
0.2240000000	cnn based method
0.2240000000	experimental results showing
0.2240000000	outperforms competing methods
0.2240000000	unsupervised learning technique
0.2240000000	cnn based approaches
0.2240000000	real world tasks
0.2240000000	deep learning systems
0.2240000000	real world problem
0.2240000000	experimental results prove
0.2240000000	real world clinical
0.2240000000	deep learning frameworks
0.2240000000	latent space model
0.2240000000	image classification models
0.2240000000	real world examples
0.2240000000	modern data analysis
0.2240000000	stochastic optimization algorithm
0.2240000000	deep multi task
0.2240000000	real world scenes
0.2240000000	average precision map
0.2240000000	sample complexity bound
0.2240000000	real world environments
0.2240000000	real world domains
0.2240000000	real valued function
0.2240000000	data mining approach
0.2240000000	data mining applications
0.2240000000	convolutional dictionary learning
0.2240000000	population based evolutionary
0.2240000000	experimental results comparing
0.2240000000	real world classification
0.2240000000	image segmentation algorithms
0.2240000000	efficient learning algorithms
0.2240000000	real life applications
0.2240000000	standard machine learning
0.2240000000	real world graphs
0.2240000000	real world case
0.2240000000	real world instances
0.2240000000	real world networks
0.2240000000	real world image
0.2240000000	real world objects
0.2240000000	real world object
0.2240000000	real world conditions
0.2240000000	real world benchmark
0.2240000000	real world dataset
0.2240000000	real world deployment
0.2240000000	real world settings
0.2240000000	neural networks rnns
0.2240000000	neural networks achieve
0.2240000000	bayesian model selection
0.2240000000	achieves high accuracy
0.2240000000	variational gaussian process
0.2240000000	data mining process
0.2240000000	cnn based face
0.2240000000	real world large
0.2240000000	convolutional encoder decoder
0.2240000000	experimental results illustrate
0.2240000000	learning based model
0.2240000000	learning based approaches
0.2240000000	moving object detection
0.2240000000	real world application
0.2240000000	data fidelity term
0.2240000000	neural networks rnn
0.2240000000	label propagation algorithm
0.2240000000	real life data
0.2240000000	scene understanding tasks
0.2240000000	real life scenarios
0.2240000000	image segmentation task
0.2240000000	real world text
0.2240000000	distributed vector representations
0.2240000000	neural networks dnn
0.2240000000	extensive empirical evaluation
0.2240000000	supervised deep learning
0.2240000000	real life problems
0.2240000000	unsupervised learning approach
0.2240000000	neural networks dcnns
0.2240000000	latent random variables
0.2240000000	probabilistic matrix factorization
0.2240000000	cnn based models
0.2240000000	network based method
0.2240000000	real world systems
0.2240000000	starting point for
0.2240000000	deep learning community
0.2240000000	significant improvement on
0.2240000000	image data set
0.2240000000	online social media
0.2240000000	deep learning model
0.2240000000	distributed machine learning
0.2240000000	real world situations
0.2240000000	temporal data mining
0.2240000000	cnn based methods
0.2240000000	information processing systems
0.2240000000	network based approach
0.2240000000	structured prediction problems
0.2240000000	neural networks ann
0.2240000000	bayesian reinforcement learning
0.2240000000	dimensionality reduction methods
0.2240000000	data mining tasks
0.2240000000	real world scenario
0.2240000000	deep learning classifiers
0.2240000000	neural networks anns
0.2240000000	neural networks nn
0.2240000000	neural networks called
0.2240000000	rough sets based
0.2240000000	standard stochastic gradient
0.2240000000	real life datasets
0.2240000000	neural networks cnn
0.2240000000	real world experiments
0.2240000000	proposed methods outperform
0.2240000000	outperforms baseline methods
0.2240000000	learning based approach
0.2240000000	learning based image
0.2240000000	capture long term
0.2240000000	capture long range
0.2240000000	standard neural network
0.2240000000	standard reinforcement learning
0.2240000000	linear programming relaxation
0.2240000000	online social network
0.2240000000	online reinforcement learning
0.2240000000	solving real world
0.2240000000	important real world
0.2240000000	dimensionality reduction technique
0.2240000000	the inner workings
0.2240000000	dimensionality reduction techniques
0.2240000000	dimensionality reduction method
0.2240000000	unsupervised learning algorithm
0.2240000000	existing machine learning
0.2240000000	heterogeneous data sources
0.2240000000	regularized linear regression
0.2240000000	efficient neural network
0.2240000000	efficient closed form
0.2240000000	efficient learning algorithm
0.2240000000	vision tasks including
0.2240000000	word embeddings trained
0.2240000000	deep multi view
0.2240000000	deep learning method
0.2240000000	deep learning research
0.2240000000	deep learning technique
0.2240000000	deep learning technologies
0.2240000000	faster convergence rates
0.2240000000	faster convergence rate
0.2240000000	sequence labeling problem
0.2240000000	language modeling tasks
0.2240000000	experimental results validate
0.2240000000	image classification datasets
0.2240000000	image classification task
0.2240000000	image classification problem
0.2240000000	language modeling task
0.2240000000	network based models
0.2240000000	image segmentation algorithm
0.2240000000	single neural network
0.2240000000	visual recognition challenge
0.2240000000	unsupervised learning tasks
0.2240000000	unsupervised learning techniques
0.2240000000	supervised representation learning
0.2240000000	model achieves significant
0.2240000000	combinatorial optimization problem
0.2240000000	structured prediction models
0.2240000000	structured prediction problem
0.2240000000	produce high quality
0.2240000000	model selection criteria
0.2240000000	model selection criterion
0.2240000000	experimental results demonstrating
0.2240000000	experimental results shows
0.2240000000	lstm neural network
0.2240000000	level vision tasks
0.2240000000	image processing problems
0.2240000000	image processing applications
0.2240000000	based action recognition
0.2240000000	image processing algorithms
0.2240000000	unconstrained face recognition
0.2240000000	joint probability distributions
0.2240000000	dynamic topic modeling
0.2240000000	public data sets
0.2240000000	based feature extraction
0.2240000000	class classification problem
0.2240000000	real datasets demonstrate
0.2240000000	learning problems including
0.2240000000	based clustering algorithms
0.2240000000	data sets including
0.2240000000	based evolutionary algorithm
0.2240000000	based speech recognition
0.2240000000	exact probabilistic inference
0.2240000000	objective evolutionary algorithms
0.2240000000	robust speech recognition
0.2240000000	machine learning statistics
0.2240000000	medical image retrieval
0.2240000000	machine learning model
0.2240000000	insufficient training data
0.2240000000	high level knowledge
0.2240000000	machine learning researchers
0.2240000000	based light field
0.2240000000	0 1 n
0.2240000000	general graphical models
0.2240000000	structured low rank
0.2240000000	machine learning technique
0.2240000000	machine learning classification
0.2240000000	achieve high performance
0.2240000000	solve optimization problems
0.2240000000	machine learning literature
0.2240000000	machine learning task
0.2240000000	domain specific information
0.2240000000	multiple related tasks
0.2240000000	document classification tasks
0.2240000000	gated recurrent neural
0.2240000000	additional computational cost
0.2240000000	conditional image generation
0.2240000000	high level abstractions
0.2240000000	dimensional data analysis
0.2240000000	high prediction accuracy
0.2240000000	achieve high quality
0.2240000000	machine learning solutions
0.2240000000	image processing methods
0.2240000000	machine learning paradigm
0.2240000000	machine learning research
0.2240000000	machine learning pipelines
0.2240000000	feature selection algorithm
0.2240000000	multiple data sets
0.2240000000	multiple data sources
0.2240000000	maximum entropy models
0.2240000000	incorporate prior knowledge
0.2240000000	current deep learning
0.2240000000	high level concepts
0.2240000000	high level image
0.2240000000	character based neural
0.2240000000	relu neural networks
0.2240000000	machine learning library
0.2240000000	joint probability distribution
0.2240000000	feature extraction methods
0.2240000000	feature extraction techniques
0.2240000000	feature extraction method
0.2240000000	achieve high accuracy
0.2240000000	machine learning community
0.2240000000	feature selection approach
0.2240000000	feature selection approaches
0.2240000000	feature selection techniques
0.2240000000	machine learning problem
0.2240000000	stochastic local search
0.2240000000	parallel genetic algorithm
0.2240000000	statistical language model
0.2240000000	artificial intelligence systems
0.2240000000	artificial intelligence research
0.2240000000	artificial intelligence techniques
0.2240000000	artificial intelligence based
0.2240000000	domain specific language
0.2240000000	extensive numerical experiments
0.2240000000	machine learning method
0.2240000000	image processing tasks
0.2240000000	image processing techniques
0.2240000000	high computational efficiency
0.2240000000	sequence prediction tasks
0.2240000000	high level tasks
0.2240000000	high level semantics
0.2240000000	machine learning algorithm
0.2240000000	machine learning perspective
0.2240000000	machine learning frameworks
0.2240000000	machine learning tools
0.2240000000	machine learning classifiers
0.2240000000	machine learning data
0.2240000000	machine learning framework
0.2240000000	machine learning repository
0.2240000000	advanced machine learning
0.2240000000	public benchmark datasets
0.2240000000	improve classification accuracy
0.2240000000	improve classification performance
0.2240000000	model free deep
0.2240000000	apply machine learning
0.2240000000	reinforcement learning techniques
0.2240000000	reinforcement learning agent
0.2240000000	reinforcement learning approach
0.2240000000	open source framework
0.2240000000	open source machine
0.2240000000	open source implementation
0.2240000000	large scale optimization
0.2240000000	local search techniques
0.2240000000	high order interactions
0.2240000000	logistic regression model
0.2240000000	worst case complexity
0.2240000000	reinforcement learning framework
0.2240000000	reinforcement learning setting
0.2240000000	multimodal deep learning
0.2240000000	complex real world
0.2240000000	large scale knowledge
0.2240000000	global optimization problem
0.2240000000	convex optimization algorithms
0.2240000000	general object detection
0.2240000000	significantly improves performance
0.2240000000	convolutional networks fcns
0.2240000000	sentiment analysis task
0.2240000000	reinforcement learning approaches
0.2240000000	natural image patches
0.2240000000	kernel based methods
0.2240000000	kernel support vector
0.2240000000	structure learning methods
0.2240000000	general artificial intelligence
0.2240000000	large scale web
0.2240000000	local search heuristics
0.2240000000	reinforcement learning based
0.2240000000	large scale kernel
0.2240000000	general reinforcement learning
0.2240000000	local search algorithm
0.2240000000	multi level feature
0.2240000000	approach achieves comparable
0.2240000000	provide empirical results
0.2240000000	large training data
0.2240000000	logistic regression models
0.2240000000	training deep learning
0.2240000000	training deep convolutional
0.2240000000	training data sets
0.2240000000	training data set
0.2240000000	open source code
0.2240000000	labelled training data
0.2240000000	approach significantly improves
0.2240000000	sentiment analysis methods
0.2240000000	large scale benchmarks
0.2240000000	large scale object
0.2240000000	large scale studies
0.2240000000	lower computational complexity
0.2240000000	layer neural networks
0.2240000000	multi class segmentation
0.2240000000	reinforcement learning problem
0.2240000000	large quantities of
0.2240000000	general loss functions
0.2240000000	large scale scene
0.2240000000	lower computational cost
0.2240000000	trained neural network
0.2240000000	large scale video
0.2240000000	large scale database
0.2240000000	residual neural networks
0.2240000000	previously proposed methods
0.2240000000	a comparison between
0.2240000000	large scale online
0.2240000000	large scale experiments
0.2240000000	test set accuracy
0.2240000000	optimal sample complexity
0.2240000000	worst case performance
0.2240000000	undirected graphical model
0.2240000000	stochastic gradient algorithms
0.2240000000	large scale benchmark
0.2240000000	global optimization problems
0.2240000000	nonconvex optimization problem
0.2240000000	open source tool
0.2240000000	reinforcement learning method
0.2240000000	pixel wise semantic
0.2240000000	biomedical image segmentation
0.2240000000	o frac 1
0.2240000000	training data size
0.2240000000	large scale networks
0.2240000000	large scale deep
0.2240000000	pixel wise classification
0.2240000000	large scale face
0.2240000000	sparse coding problem
0.2240000000	multi class problems
0.2240000000	large scale learning
0.2240000000	large scale multi
0.2240000000	large scale human
0.2240000000	large scale classification
0.2240000000	large scale recognition
0.2240000000	large scale distributed
0.2240000000	large scale corpus
0.2240000000	outperforms existing approaches
0.2240000000	pre processing steps
0.2240000000	generate high quality
0.2240000000	armed bandit with
0.2240000000	fine grained object
0.2240000000	pre processing stage
0.2240000000	outperforms existing methods
0.2240000000	efficient reinforcement learning
0.2240000000	convex loss function
0.2240000000	convex loss functions
0.2240000000	convex optimization algorithm
0.2240000000	convex optimization framework
0.2240000000	unsupervised deep learning
0.2240000000	single input image
0.2240000000	vector machine classification
0.2240000000	directed graphical models
0.2240000000	generative neural networks
0.2240000000	answer questions about
0.2240000000	higher classification accuracy
0.2240000000	sparse gaussian process
0.2240000000	sparse gaussian processes
0.2240000000	unsupervised representation learning
0.2240000000	recently proposed methods
0.2240000000	recently deep neural
0.2240000000	recently deep learning
0.2240000000	low rank constraint
0.2240000000	low rank subspace
0.2240000000	low rank decomposition
0.2240000000	low rank approximations
0.2240000000	feature learning framework
0.2240000000	information retrieval systems
0.2240000000	demonstrate significant improvements
0.2240000000	fine tuned on
0.2240000000	low rank factorization
0.2240000000	raw sensor data
0.2240000000	large intra class
0.2240000000	provide experimental results
0.2240000000	large margin classification
0.2240000000	computationally efficient algorithms
0.2240000000	multi scale features
0.2240000000	multi scale deep
0.2240000000	multi scale convolutional
0.2240000000	approach outperforms existing
0.2240000000	optimal convergence rate
0.2240000000	adversarial networks gan
0.2240000000	linear regression problem
0.2240000000	approach consistently outperforms
0.2240000000	multi scale contextual
0.2240000000	experiment results demonstrate
0.2240000000	outperforms previous methods
0.2240000000	demonstrate significant improvement
0.2240000000	optimal regret bounds
0.2240000000	anomaly detection algorithm
0.2240000000	feed forward network
0.2240000000	global convergence guarantees
0.2240000000	feature learning algorithm
0.2240000000	recently proposed deep
0.2240000000	linear regression models
0.2240000000	correlation filter based
0.2240000000	multi view face
0.2240000000	benchmark data set
0.2240000000	expectation propagation for
0.2240000000	dynamic programming algorithm
0.2240000000	increasingly popular for
0.2240000000	multi view representation
0.2240000000	camera mounted on
0.2240000000	multi scale feature
0.2240000000	shows superior performance
0.2240000000	fixed points of
0.2240000000	feed forward deep
0.2240000000	anomaly detection algorithms
0.2240000000	weighted low rank
0.2240000000	computationally efficient algorithm
0.2240000000	multi scale context
0.2240000000	low rank assumption
0.2240000000	hierarchical clustering method
0.2240000000	computationally efficient method
0.2240000000	existing deep learning
0.2240000000	deep recurrent neural
0.2240000000	standard deviation of
0.2240000000	learning discriminative features
0.2240000000	feature learning algorithms
0.2240000000	linear regression model
0.2240000000	speech recognition tasks
0.2240000000	speech recognition task
0.2240000000	high classification accuracy
0.2240000000	unsupervised machine learning
0.2240000000	outperforms previous approaches
0.2240000000	sparse learning problems
0.2240000000	nearest neighbor algorithm
0.2240000000	nearest neighbor method
0.2240000000	deep network architecture
0.2240000000	deep network architectures
0.2240000000	high frequency information
0.2240000000	visual inspection of
0.2240000000	high frequency details
0.2240000000	algorithm outperforms existing
0.2240000000	sparse low rank
0.2240000000	shows significant improvement
0.2240000000	image analysis algorithms
0.2240000000	automatic feature extraction
0.2240000000	achieves competitive results
0.2240000000	action recognition benchmarks
0.2240000000	action recognition datasets
0.2240000000	handle large scale
0.2240000000	complex high dimensional
0.2240000000	criteria decision making
0.2240000000	low resource language
0.2240000000	discrete graphical models
0.2240000000	semi supervised classification
0.2240000000	state space model
0.2240000000	low level image
0.2240000000	level visual features
0.2240000000	neural network called
0.2240000000	multi modal data
0.2240000000	natural gradient descent
0.2240000000	energy minimization problem
0.2240000000	neural network weights
0.2240000000	data driven learning
0.2240000000	data driven method
0.2240000000	data driven manner
0.2240000000	train neural networks
0.2240000000	dictionary learning based
0.2240000000	based machine learning
0.2240000000	training set size
0.2240000000	numerous real world
0.2240000000	multi task network
0.2240000000	neural network approaches
0.2240000000	benchmark datasets including
0.2240000000	neural network structure
0.2240000000	neural network nn
0.2240000000	neural network trained
0.2240000000	object oriented dynamic
0.2240000000	sparse logistic regression
0.2240000000	neural network learning
0.2240000000	automatic machine learning
0.2240000000	dimensional feature space
0.2240000000	neural network parameters
0.2240000000	neural network method
0.2240000000	numerical results demonstrate
0.2240000000	data driven methods
0.2240000000	solving optimization problems
0.2240000000	uci machine learning
0.2240000000	dimensional feature vectors
0.2240000000	large data set
0.2240000000	convolutional network fcn
0.2240000000	data driven approach
0.2240000000	neural network framework
0.2240000000	highly competitive performance
0.2240000000	large real world
0.2240000000	neural network classifier
0.2240000000	probabilistic generative models
0.2240000000	recent machine learning
0.2240000000	neural network structures
0.2240000000	data driven models
0.2240000000	upper bound of
0.2240000000	fully data driven
0.2240000000	small data sets
0.2240000000	neural network features
0.2240000000	clustering based approach
0.2240000000	neural network convnet
0.2240000000	dimensional feature vector
0.2240000000	scale real world
0.2240000000	neural network dnn
0.2240000000	neural network named
0.2240000000	benchmark datasets mnist
0.2240000000	convolutional network architecture
0.2240000000	multi task loss
0.2240000000	neural network methods
0.2240000000	dimension reduction technique
0.2240000000	low level feature
0.2240000000	numerical experiments demonstrate
0.2240000000	sparse linear models
0.2240000000	data driven model
0.2240000000	data driven approaches
0.2240000000	achieve faster convergence
0.2240000000	neural network classifiers
0.2240000000	recently neural network
0.2240000000	hard combinatorial problem
0.2240000000	log likelihood function
0.2240000000	neural network acoustic
0.2240000000	probabilistic generative model
0.2240000000	interpretable machine learning
0.2240000000	neural network dcnn
0.2240000000	neural network approach
0.2240000000	equal error rate
0.2240000000	intrusion detection system
0.2240000000	long term memory
0.2240000000	massive data sets
0.2240000000	demonstrate superior performance
0.2240000000	agent based model
0.2240000000	binary neural networks
0.2240000000	alternating minimization algorithm
0.2240000000	regret bound for
0.2240000000	long term predictions
0.2240000000	long term dependency
0.2240000000	long term prediction
0.2240000000	learning generative models
0.2240000000	proposed learning algorithm
0.2240000000	dictionary learning algorithm
0.2240000000	facial expression classification
0.2240000000	preliminary experimental results
0.2240000000	the operation of
0.2240000000	report experimental results
0.2240000000	question answering models
0.2240000000	posterior sampling for
0.2240000000	agent based simulation
0.2240000000	efficient machine learning
0.2240000000	deep metric learning
0.2240000000	deep feature learning
0.2240000000	statistical pattern recognition
0.2240000000	scale data sets
0.2240000000	policy gradient algorithm
0.2240000000	statistical machine learning
0.2240000000	semi supervised model
0.2240000000	invariant object recognition
0.2240000000	multilayer neural network
0.2240000000	dimension reduction techniques
0.2240000000	stochastic neural networks
0.2240000000	prior domain knowledge
0.2240000000	image analysis tasks
0.2240000000	scale deep learning
0.2240000000	question answering task
0.2240000000	question answering dataset
0.2240000000	question answering tasks
0.2240000000	semi supervised setting
0.2240000000	semi supervised approach
0.2240000000	semi supervised training
0.2240000000	solving inverse problems
0.2240000000	sparse linear regression
0.2240000000	solving large scale
0.2240000000	clinical information
0.2240000000	algorithm automatically
0.2240000000	correlation analysis
0.2240000000	solving complex
0.2240000000	vector model
0.2240000000	sampling process
0.2240000000	explicit knowledge
0.2240000000	explicit model
0.2240000000	adaptive network
0.2240000000	shows competitive
0.2240000000	experimental conditions
0.2240000000	models provide
0.2240000000	experimental result
0.2240000000	major problems
0.2240000000	direct methods
0.2240000000	direct visual
0.2240000000	direct method
0.2240000000	require complex
0.2240000000	free space
0.2240000000	algorithm obtains
0.2240000000	free inference
0.2240000000	free algorithm
0.2240000000	free images
0.2240000000	free methods
0.2240000000	free parameter
0.2240000000	free networks
0.2240000000	free deep
0.2240000000	free approach
0.2240000000	free optimization
0.2240000000	gram models
0.2240000000	quantitative experiments
0.2240000000	baseline approach
0.2240000000	baseline model
0.2240000000	clinical application
0.2240000000	clinical domain
0.2240000000	experimental analyses
0.2240000000	pre train
0.2240000000	pre existing
0.2240000000	gram based
0.2240000000	individual images
0.2240000000	individual objects
0.2240000000	individual components
0.2240000000	individual actions
0.2240000000	individual data
0.2240000000	adaptive parameter
0.2240000000	larger set
0.2240000000	larger problems
0.2240000000	larger networks
0.2240000000	algorithm termed
0.2240000000	layer deep
0.2240000000	unseen images
0.2240000000	algorithm approach
0.2240000000	algorithm achieved
0.2240000000	algorithm exhibits
0.2240000000	tested datasets
0.2240000000	adaptive method
0.2240000000	algorithm achieving
0.2240000000	algorithm i.e
0.2240000000	algorithm optimizes
0.2240000000	algorithm presents
0.2240000000	algorithm selects
0.2240000000	algorithm consistently
0.2240000000	algorithm effectively
0.2240000000	algorithm scales
0.2240000000	algorithm reduces
0.2240000000	algorithm combines
0.2240000000	algorithm ii
0.2240000000	algorithm allowing
0.2240000000	algorithm improves
0.2240000000	algorithm generalizes
0.2240000000	algorithm design
0.2240000000	algorithm shows
0.2240000000	consensus based
0.2240000000	algorithm requires
0.2240000000	highly parallel
0.2240000000	highly dynamic
0.2240000000	algorithm offers
0.2240000000	highly constrained
0.2240000000	highly related
0.2240000000	highly similar
0.2240000000	highly sparse
0.2240000000	user input
0.2240000000	algorithm capable
0.2240000000	wide field
0.2240000000	style methods
0.2240000000	wide web
0.2240000000	direct optimization
0.2240000000	applications involve
0.2240000000	powerful techniques
0.2240000000	comparison results
0.2240000000	comparison based
0.2240000000	algorithm development
0.2240000000	past data
0.2240000000	labels e.g
0.2240000000	shows improved
0.2240000000	supports efficient
0.2240000000	english data
0.2240000000	desired performance
0.2240000000	baseline method
0.2240000000	greater accuracy
0.2240000000	user provided
0.2240000000	user based
0.2240000000	nonlinear dynamic
0.2240000000	model identification
0.2240000000	nonlinear kernel
0.2240000000	nonlinear feature
0.2240000000	model inference
0.2240000000	nonlinear model
0.2240000000	present applications
0.2240000000	formal language
0.2240000000	algorithm generates
0.2240000000	model requires
0.2240000000	model generation
0.2240000000	direct sparse
0.2240000000	sparse code
0.2240000000	shared feature
0.2240000000	shared structure
0.2240000000	layer feature
0.2240000000	jointly model
0.2240000000	jointly training
0.2240000000	jointly estimate
0.2240000000	jointly train
0.2240000000	nonlinear function
0.2240000000	resulting representation
0.2240000000	resulting classifier
0.2240000000	resulting feature
0.2240000000	individual features
0.2240000000	vector based
0.2240000000	larger dataset
0.2240000000	adaptive approach
0.2240000000	adaptive sparse
0.2240000000	adaptive algorithms
0.2240000000	adaptive search
0.2240000000	adaptive image
0.2240000000	adaptive algorithm
0.2240000000	adaptive deep
0.2240000000	adaptive importance
0.2240000000	adaptive online
0.2240000000	adaptive training
0.2240000000	adaptive kernel
0.2240000000	adaptive behavior
0.2240000000	sampling approach
0.2240000000	adaptive gradient
0.2240000000	sparse factor
0.2240000000	sparse graphs
0.2240000000	sparse kernel
0.2240000000	sparse components
0.2240000000	sparse graph
0.2240000000	sparse feature
0.2240000000	sparse estimation
0.2240000000	sparse modeling
0.2240000000	adaptive systems
0.2240000000	sparse structured
0.2240000000	sparse distributed
0.2240000000	sparse datasets
0.2240000000	sparse convolutional
0.2240000000	sparse view
0.2240000000	sparse clustering
0.2240000000	sparse set
0.2240000000	algorithm applies
0.2240000000	layer network
0.2240000000	behavior based
0.2240000000	individual models
0.2240000000	individual users
0.2240000000	behavior analysis
0.2240000000	web applications
0.2240000000	pre process
0.2240000000	web image
0.2240000000	integrate multiple
0.2240000000	desirable features
0.2240000000	present numerical
0.2240000000	style algorithms
0.2240000000	shallow network
0.2240000000	powerful representation
0.2240000000	powerful technique
0.2240000000	powerful models
0.2240000000	powerful deep
0.2240000000	integrated approach
0.2240000000	structured representation
0.2240000000	structured neural
0.2240000000	structured knowledge
0.2240000000	structured information
0.2240000000	structured models
0.2240000000	regression setting
0.2240000000	higher efficiency
0.2240000000	variant called
0.2240000000	major research
0.2240000000	major improvement
0.2240000000	sparse matrices
0.2240000000	correlation based
0.2240000000	layer convolutional
0.2240000000	improve model
0.2240000000	difficulty level
0.2240000000	sparse neural
0.2240000000	sampling inference
0.2240000000	adaptive clustering
0.2240000000	recognition approach
0.2240000000	algorithm incorporates
0.2240000000	past present
0.2240000000	algorithm learns
0.2240000000	algorithm makes
0.2240000000	algorithm presented
0.2240000000	algorithm developed
0.2240000000	social structure
0.2240000000	require hand
0.2240000000	require high
0.2240000000	require additional
0.2240000000	require training
0.2240000000	require human
0.2240000000	require extensive
0.2240000000	recognition object
0.2240000000	recognition machine
0.2240000000	recognition datasets
0.2240000000	adaptive regularization
0.2240000000	algorithm converges
0.2240000000	sparse sampling
0.2240000000	sparse component
0.2240000000	applications data
0.2240000000	algorithm employs
0.2240000000	algorithm compared
0.2240000000	sparse reconstruction
0.2240000000	algorithm including
0.2240000000	experimental findings
0.2240000000	highly variable
0.2240000000	english text
0.2240000000	english words
0.2240000000	algorithm framework
0.2240000000	software based
0.2240000000	software applications
0.2240000000	software architecture
0.2240000000	software framework
0.2240000000	require large
0.2240000000	architectures trained
0.2240000000	web application
0.2240000000	architectures including
0.2240000000	model shows
0.2240000000	models proposed
0.2240000000	adaptive model
0.2240000000	present research
0.2240000000	model long
0.2240000000	structured objects
0.2240000000	structured model
0.2240000000	baseline systems
0.2240000000	powerful model
0.2240000000	model high
0.2240000000	model sizes
0.2240000000	model directly
0.2240000000	baseline results
0.2240000000	size adaptation
0.2240000000	present paper
0.2240000000	present theoretical
0.2240000000	higher computational
0.2240000000	nonlinear functions
0.2240000000	learned information
0.2240000000	learned embeddings
0.2240000000	learned classifiers
0.2240000000	learned automatically
0.2240000000	learned parameters
0.2240000000	recognition technology
0.2240000000	recognition application
0.2240000000	recognition network
0.2240000000	recognition experiments
0.2240000000	recognition technique
0.2240000000	recognition benchmarks
0.2240000000	recognition methods
0.2240000000	recognition challenge
0.2240000000	recognition models
0.2240000000	learned weights
0.2240000000	higher recognition
0.2240000000	higher resolution
0.2240000000	higher predictive
0.2240000000	higher precision
0.2240000000	higher prediction
0.2240000000	major problem
0.2240000000	powerful framework
0.2240000000	sparse support
0.2240000000	equivalent performance
0.2240000000	explicit information
0.2240000000	processing algorithms
0.2240000000	learned word
0.2240000000	solving constraint
0.2240000000	regression analysis
0.2240000000	model consistently
0.2240000000	model predicts
0.2240000000	model architecture
0.2240000000	algorithm solves
0.2240000000	applications require
0.2240000000	model yields
0.2240000000	model aims
0.2240000000	produce highly
0.2240000000	model makes
0.2240000000	model includes
0.2240000000	processing technique
0.2240000000	problems e.g
0.2240000000	generative approaches
0.2240000000	sentence classification
0.2240000000	model incorporating
0.2240000000	major challenge
0.2240000000	accuracy trade
0.2240000000	window approach
0.2240000000	model design
0.2240000000	corpus size
0.2240000000	classifying images
0.2240000000	performed efficiently
0.2240000000	models fail
0.2240000000	cases including
0.2240000000	processing task
0.2240000000	increased performance
0.2240000000	processing models
0.2240000000	model exhibits
0.2240000000	explicit feature
0.2240000000	trained classifiers
0.2240000000	accuracy levels
0.2240000000	clinical text
0.2240000000	accuracy rates
0.2240000000	model sparsity
0.2240000000	structured input
0.2240000000	model approach
0.2240000000	recognition networks
0.2240000000	robot learning
0.2240000000	model outputs
0.2240000000	correlation information
0.2240000000	accuracy achieved
0.2240000000	regression algorithm
0.2240000000	model classes
0.2240000000	sampling techniques
0.2240000000	models offer
0.2240000000	testing images
0.2240000000	domains e.g
0.2240000000	models learned
0.2240000000	algorithm parameters
0.2240000000	model incorporates
0.2240000000	learned model
0.2240000000	grained analysis
0.2240000000	algorithm works
0.2240000000	challenging visual
0.2240000000	individual level
0.2240000000	improve robustness
0.2240000000	regression task
0.2240000000	knowledge resources
0.2240000000	recognition domain
0.2240000000	accuracy robustness
0.2240000000	social systems
0.2240000000	regression networks
0.2240000000	individual tasks
0.2240000000	objective genetic
0.2240000000	additional source
0.2240000000	algorithm builds
0.2240000000	improves recognition
0.2240000000	functional analysis
0.2240000000	recognition research
0.2240000000	measurement data
0.2240000000	additional knowledge
0.2240000000	recognition process
0.2240000000	additional training
0.2240000000	resulting images
0.2240000000	testing method
0.2240000000	baseline performance
0.2240000000	media data
0.2240000000	resulting architecture
0.2240000000	recognition involves
0.2240000000	model theoretic
0.2240000000	integrated framework
0.2240000000	model simultaneously
0.2240000000	mechanism called
0.2240000000	models learn
0.2240000000	recognition benchmark
0.2240000000	accuracy improvement
0.2240000000	models significantly
0.2240000000	model assumes
0.2240000000	model takes
0.2240000000	additional input
0.2240000000	algorithm exploits
0.2240000000	accuracy results
0.2240000000	model independent
0.2240000000	accuracy rate
0.2240000000	model specific
0.2240000000	accuracy level
0.2240000000	improve quality
0.2240000000	processing approach
0.2240000000	produce accurate
0.2240000000	models generalize
0.2240000000	vector embedding
0.2240000000	trained efficiently
0.2240000000	models i.e
0.2240000000	models assume
0.2240000000	challenging scenarios
0.2240000000	models typically
0.2240000000	increased computational
0.2240000000	trained human
0.2240000000	resulting network
0.2240000000	learned simultaneously
0.2240000000	sparse approximations
0.2240000000	algorithm successfully
0.2240000000	model offers
0.2240000000	model reduction
0.2240000000	present extensive
0.2240000000	model search
0.2240000000	additional parameters
0.2240000000	models built
0.2240000000	grained information
0.2240000000	sampling rates
0.2240000000	knowledge enhanced
0.2240000000	model generalizes
0.2240000000	model structure
0.2240000000	fixed dimensional
0.2240000000	model built
0.2240000000	powerful image
0.2240000000	model gp
0.2240000000	model combines
0.2240000000	this principle
0.2240000000	resulting models
0.2240000000	model formulation
0.2240000000	challenging issues
0.2240000000	baseline algorithms
0.2240000000	flexible approach
0.2240000000	models perform
0.2240000000	model demonstrates
0.2240000000	model theory
0.2240000000	model comparison
0.2240000000	model assumptions
0.2240000000	model generates
0.2240000000	present methods
0.2240000000	past research
0.2240000000	additional cost
0.2240000000	user query
0.2240000000	generative probabilistic
0.2240000000	primary task
0.2240000000	testing data
0.2240000000	improve generalization
0.2240000000	sentence based
0.2240000000	model combining
0.2240000000	model produces
0.2240000000	model learned
0.2240000000	model captures
0.2240000000	accuracy improvements
0.2240000000	model human
0.2240000000	media text
0.2240000000	subsequent analysis
0.2240000000	trained cnn
0.2240000000	free method
0.2240000000	model naturally
0.2240000000	model building
0.2240000000	solving problems
0.2240000000	powerful approach
0.2240000000	present study
0.2240000000	learned end
0.2240000000	sentence structure
0.2240000000	model jointly
0.2240000000	model interpretability
0.2240000000	model capacity
0.2240000000	exploration problem
0.2240000000	nonlinear systems
0.2240000000	models called
0.2240000000	model enables
0.2240000000	present preliminary
0.2240000000	adaptive multi
0.2240000000	agent deep
0.2240000000	produce results
0.2240000000	solving multiple
0.2240000000	model validation
0.2240000000	shared representation
0.2240000000	challenging conditions
0.2240000000	present efficient
0.2240000000	model e.g
0.2240000000	model explains
0.2240000000	present detailed
0.2240000000	model updates
0.2240000000	individual classifiers
0.2240000000	robot experiments
0.2240000000	recognition framework
0.2240000000	additional computational
0.2240000000	model exploits
0.2240000000	present evidence
0.2240000000	trained independently
0.2240000000	individual agent
0.2240000000	transfer method
0.2240000000	models represent
0.2240000000	models requires
0.2240000000	algorithm ga
0.2240000000	sampling patterns
0.2240000000	recognition evaluation
0.2240000000	recognition dataset
0.2240000000	sparse features
0.2240000000	models directly
0.2240000000	challenging data
0.2240000000	learned deep
0.2240000000	models produce
0.2240000000	model predictions
0.2240000000	objective quality
0.2240000000	models e.g
0.2240000000	tree analysis
0.2240000000	model accuracy
0.2240000000	model adaptation
0.2240000000	implementation issues
0.2240000000	model improves
0.2240000000	model i.e
0.2240000000	model obtains
0.2240000000	processing data
0.2240000000	model architectures
0.2240000000	model agnostic
0.2240000000	model employs
0.2240000000	model variants
0.2240000000	model complex
0.2240000000	model representation
0.2240000000	model works
0.2240000000	model matches
0.2240000000	model parameter
0.2240000000	model data
0.2240000000	agent learns
0.2240000000	models obtained
0.2240000000	model represents
0.2240000000	model inspired
0.2240000000	processing method
0.2240000000	model including
0.2240000000	model output
0.2240000000	processing tool
0.2240000000	challenging benchmarks
0.2240000000	learned representation
0.2240000000	model retrieval
0.2240000000	sampling procedure
0.2240000000	samples generated
0.2240000000	free online
0.2240000000	processing community
0.2240000000	recognition approaches
0.2240000000	generative framework
0.2240000000	increased accuracy
0.2240000000	tree representation
0.2240000000	processing algorithm
0.2240000000	depth prediction
0.2240000000	improves significantly
0.2240000000	improves accuracy
0.2240000000	improves classification
0.2240000000	improves prediction
0.2240000000	improves segmentation
0.2240000000	objective evaluation
0.2240000000	objective values
0.2240000000	powerful generative
0.2240000000	flexible model
0.2240000000	word prediction
0.2240000000	mechanism design
0.2240000000	problems requires
0.2240000000	improves generalization
0.2240000000	problems require
0.2240000000	structured matrix
0.2240000000	problems i.e
0.2240000000	problems arise
0.2240000000	select features
0.2240000000	adaptive version
0.2240000000	vector embeddings
0.2240000000	powerful method
0.2240000000	solving linear
0.2240000000	solving systems
0.2240000000	processing problems
0.2240000000	formal models
0.2240000000	word units
0.2240000000	generative process
0.2240000000	window based
0.2240000000	model achieved
0.2240000000	model estimation
0.2240000000	sentence extraction
0.2240000000	experimental settings
0.2240000000	algorithm yields
0.2240000000	free word
0.2240000000	quantitative information
0.2240000000	mixed models
0.2240000000	models considered
0.2240000000	problems demonstrate
0.2240000000	generative image
0.2240000000	sampling distributions
0.2240000000	samples i.e
0.2240000000	learned jointly
0.2240000000	feasible set
0.2240000000	word character
0.2240000000	word distribution
0.2240000000	word distributions
0.2240000000	word sequences
0.2240000000	generative discriminative
0.2240000000	depth reconstruction
0.2240000000	shared knowledge
0.2240000000	improve learning
0.2240000000	recognition applications
0.2240000000	apply deep
0.2240000000	unseen object
0.2240000000	individual samples
0.2240000000	sparse solutions
0.2240000000	transfer based
0.2240000000	transfer methods
0.2240000000	resulting model
0.2240000000	knowledge acquired
0.2240000000	knowledge learned
0.2240000000	additional experiments
0.2240000000	trained convolutional
0.2240000000	recognition algorithm
0.2240000000	knowledge representations
0.2240000000	knowledge source
0.2240000000	additional data
0.2240000000	challenging dataset
0.2240000000	challenging benchmark
0.2240000000	challenging issue
0.2240000000	challenging image
0.2240000000	public domain
0.2240000000	challenging video
0.2240000000	challenging situations
0.2240000000	constraints e.g
0.2240000000	fourier analysis
0.2240000000	processing including
0.2240000000	robotic applications
0.2240000000	processing systems
0.2240000000	processing methods
0.2240000000	processing techniques
0.2240000000	processing power
0.2240000000	processing operations
0.2240000000	processing large
0.2240000000	processing stage
0.2240000000	box regression
0.2240000000	processing framework
0.2240000000	accuracy measures
0.2240000000	improve translation
0.2240000000	model structures
0.2240000000	formal framework
0.2240000000	user data
0.2240000000	user specific
0.2240000000	vector representing
0.2240000000	highly robust
0.2240000000	improve results
0.2240000000	sparse random
0.2240000000	algorithm minimizes
0.2240000000	trained deep
0.2240000000	trained word
0.2240000000	trained networks
0.2240000000	trained classifier
0.2240000000	sparse structure
0.2240000000	adaptive methods
0.2240000000	adaptive step
0.2240000000	base model
0.2240000000	base network
0.2240000000	tree learning
0.2240000000	shared parameters
0.2240000000	improve prediction
0.2240000000	present algorithms
0.2240000000	samples required
0.2240000000	recognition errors
0.2240000000	testing set
0.2240000000	learned knowledge
0.2240000000	challenging cases
0.2240000000	challenging research
0.2240000000	models require
0.2240000000	sampling framework
0.2240000000	challenging setting
0.2240000000	learned cnn
0.2240000000	prototype model
0.2240000000	accuracy increases
0.2240000000	sentence generation
0.2240000000	processing step
0.2240000000	corpus analysis
0.2240000000	corpus level
0.2240000000	objective optimization
0.2240000000	problems involve
0.2240000000	solving multi
0.2240000000	require multiple
0.2240000000	improve semantic
0.2240000000	applications requiring
0.2240000000	improve image
0.2240000000	improve training
0.2240000000	improve accuracy
0.2240000000	improve existing
0.2240000000	improve segmentation
0.2240000000	improve object
0.2240000000	triplet based
0.2240000000	additional layer
0.2240000000	algorithm takes
0.2240000000	algorithm produces
0.2240000000	vector data
0.2240000000	vector operations
0.2240000000	vector encoding
0.2240000000	layer structure
0.2240000000	future data
0.2240000000	future prediction
0.2240000000	future applications
0.2240000000	future studies
0.2240000000	convnet based
0.2240000000	shallow networks
0.2240000000	shallow neural
0.2240000000	media analysis
0.2240000000	entire model
0.2240000000	entire image
0.2240000000	actual data
0.2240000000	regression settings
0.2240000000	tree algorithm
0.2240000000	influence function
0.2240000000	ct data
0.2240000000	pso based
0.2240000000	box optimization
0.2240000000	box function
0.2240000000	box functions
0.2240000000	box complexity
0.2240000000	preliminary analysis
0.2240000000	preliminary study
0.2240000000	tree algorithms
0.2240000000	tree model
0.2240000000	tree classifiers
0.2240000000	aggregating algorithm
0.2240000000	bandit based
0.2240000000	regression techniques
0.2240000000	regression algorithms
0.2240000000	regression framework
0.2240000000	regression function
0.2240000000	regression loss
0.2240000000	bias problem
0.2240000000	nonparametric model
0.2240000000	nonparametric approach
0.2240000000	nonparametric method
0.2240000000	nonparametric methods
0.2240000000	nonparametric estimation
0.2240000000	advanced features
0.2240000000	social context
0.2240000000	favorable results
0.2240000000	heterogeneous information
0.2240000000	program analysis
0.2240000000	category classification
0.2240000000	style algorithm
0.2240000000	virtual machine
0.2240000000	mixed model
0.2240000000	robot applications
0.2240000000	formal approach
0.2240000000	formal methods
0.2240000000	boundary based
0.2240000000	boundary prediction
0.2240000000	advanced techniques
0.2240000000	ratio estimation
0.2240000000	fourier features
0.2240000000	measurement model
0.2240000000	trajectory based
0.2240000000	category recognition
0.2240000000	combinatorial search
0.2240000000	bounded error
0.2240000000	heterogeneous network
0.2240000000	heterogeneous datasets
0.2240000000	public image
0.2240000000	category level
0.2240000000	speed accuracy
0.2240000000	outperforms single
0.2240000000	image pixel
0.2240000000	prediction algorithms
0.2240000000	prediction method
0.2240000000	scale corpus
0.2240000000	significantly improving
0.2240000000	network sizes
0.2240000000	scale synthetic
0.2240000000	scale networks
0.2240000000	faster training
0.2240000000	scale high
0.2240000000	scale mixture
0.2240000000	scale linear
0.2240000000	scale context
0.2240000000	network resnet
0.2240000000	scale models
0.2240000000	scale recognition
0.2240000000	scale web
0.2240000000	scale neural
0.2240000000	scale datasets
0.2240000000	scale feature
0.2240000000	scale data
0.2240000000	scale training
0.2240000000	scale deep
0.2240000000	scale visual
0.2240000000	network complexity
0.2240000000	scale analysis
0.2240000000	scale learning
0.2240000000	visual differences
0.2240000000	visual objects
0.2240000000	visual word
0.2240000000	mapping algorithm
0.2240000000	network representations
0.2240000000	scale convex
0.2240000000	visual sensor
0.2240000000	generate diverse
0.2240000000	dependent noise
0.2240000000	dependent data
0.2240000000	dual problem
0.2240000000	generate accurate
0.2240000000	extends previous
0.2240000000	statistically efficient
0.2240000000	visual results
0.2240000000	scale images
0.2240000000	scale systems
0.2240000000	prediction framework
0.2240000000	scale information
0.2240000000	scale multi
0.2240000000	scale benchmarks
0.2240000000	scale evaluation
0.2240000000	sequence training
0.2240000000	scale online
0.2240000000	logarithmic image
0.2240000000	resolution based
0.2240000000	single framework
0.2240000000	simultaneous feature
0.2240000000	image generator
0.2240000000	image annotations
0.2240000000	single instance
0.2240000000	practical solution
0.2240000000	practical cases
0.2240000000	practical settings
0.2240000000	practical challenges
0.2240000000	single architecture
0.2240000000	practical method
0.2240000000	practical aspects
0.2240000000	practical approach
0.2240000000	practical implementation
0.2240000000	practical setting
0.2240000000	practical problem
0.2240000000	practical scenarios
0.2240000000	image pair
0.2240000000	operator learning
0.2240000000	extensive simulation
0.2240000000	prior assumptions
0.2240000000	prior model
0.2240000000	thresholding approach
0.2240000000	natural human
0.2240000000	compare performance
0.2240000000	ranking problem
0.2240000000	unsupervised image
0.2240000000	competitive classification
0.2240000000	theoretical study
0.2240000000	theoretical development
0.2240000000	theoretical model
0.2240000000	theoretical bound
0.2240000000	mapping function
0.2240000000	derive generalization
0.2240000000	visual motion
0.2240000000	generate videos
0.2240000000	dual approach
0.2240000000	verification based
0.2240000000	verification systems
0.2240000000	verification problem
0.2240000000	face space
0.2240000000	face generation
0.2240000000	network capacity
0.2240000000	scale parameter
0.2240000000	scale problems
0.2240000000	scale database
0.2240000000	scale convolutional
0.2240000000	corrupted images
0.2240000000	network compression
0.2240000000	question type
0.2240000000	outperforms classical
0.2240000000	verification task
0.2240000000	successful approach
0.2240000000	inspired model
0.2240000000	fewer training
0.2240000000	convex analysis
0.2240000000	case complexity
0.2240000000	performance accuracy
0.2240000000	performance including
0.2240000000	visual signals
0.2240000000	performance close
0.2240000000	framework employs
0.2240000000	framework extends
0.2240000000	geometric approach
0.2240000000	case performance
0.2240000000	geometric semantic
0.2240000000	outperforms current
0.2240000000	datasets mnist
0.2240000000	performance loss
0.2240000000	prior approaches
0.2240000000	prior art
0.2240000000	dimensional state
0.2240000000	source framework
0.2240000000	source tool
0.2240000000	source image
0.2240000000	source text
0.2240000000	source software
0.2240000000	image samples
0.2240000000	cs based
0.2240000000	distribution independent
0.2240000000	distribution based
0.2240000000	distribution defined
0.2240000000	distribution matching
0.2240000000	extensive analysis
0.2240000000	extensive comparison
0.2240000000	reduce noise
0.2240000000	stage training
0.2240000000	extensive results
0.2240000000	algorithms proposed
0.2240000000	reduce computation
0.2240000000	prior probability
0.2240000000	high power
0.2240000000	high number
0.2240000000	game theoretical
0.2240000000	supervised settings
0.2240000000	supervised cnn
0.2240000000	supervised framework
0.2240000000	supervised semantic
0.2240000000	supervised algorithms
0.2240000000	supervised approach
0.2240000000	supervised segmentation
0.2240000000	supervised convolutional
0.2240000000	inspired approach
0.2240000000	inspired computing
0.2240000000	cancer dataset
0.2240000000	unsupervised visual
0.2240000000	unsupervised algorithms
0.2240000000	unsupervised generative
0.2240000000	unsupervised algorithm
0.2240000000	unsupervised neural
0.2240000000	unsupervised manner
0.2240000000	unsupervised setting
0.2240000000	unsupervised approaches
0.2240000000	unsupervised multi
0.2240000000	theoretical convergence
0.2240000000	observed samples
0.2240000000	point detection
0.2240000000	scale spatial
0.2240000000	outperforms baselines
0.2240000000	reasoning problems
0.2240000000	network datasets
0.2240000000	scale optimization
0.2240000000	subject specific
0.2240000000	fpga based
0.2240000000	sequence information
0.2240000000	scale variation
0.2240000000	scale distributed
0.2240000000	faster learning
0.2240000000	expensive process
0.2240000000	expensive task
0.2240000000	practical issues
0.2240000000	computation times
0.2240000000	answering tasks
0.2240000000	performance increases
0.2240000000	scale applications
0.2240000000	scale problem
0.2240000000	successful deep
0.2240000000	datasets suggest
0.2240000000	source dataset
0.2240000000	empirical distributions
0.2240000000	empirical distribution
0.2240000000	empirical experiments
0.2240000000	ranking methods
0.2240000000	corrupted data
0.2240000000	strong classifier
0.2240000000	strong learning
0.2240000000	strong prior
0.2240000000	strong results
0.2240000000	evidence based
0.2240000000	single feature
0.2240000000	scale classification
0.2240000000	combination methods
0.2240000000	single rgb
0.2240000000	single machine
0.2240000000	practical performance
0.2240000000	image collection
0.2240000000	tagging tasks
0.2240000000	expensive training
0.2240000000	separable data
0.2240000000	network connections
0.2240000000	correct classification
0.2240000000	successful methods
0.2240000000	predicting human
0.2240000000	unsupervised word
0.2240000000	combination rule
0.2240000000	empirical observations
0.2240000000	generate samples
0.2240000000	reasoning task
0.2240000000	ranking performance
0.2240000000	machine classifiers
0.2240000000	traditional low
0.2240000000	traditional single
0.2240000000	traditional classification
0.2240000000	machine interaction
0.2240000000	traditional multi
0.2240000000	traditional classifiers
0.2240000000	traditional feature
0.2240000000	traditional image
0.2240000000	prior research
0.2240000000	high recall
0.2240000000	traditional hand
0.2240000000	traditional convolutional
0.2240000000	traditional supervised
0.2240000000	traditional algorithms
0.2240000000	traditional models
0.2240000000	prior models
0.2240000000	supervised algorithm
0.2240000000	high visual
0.2240000000	high computation
0.2240000000	image locations
0.2240000000	network takes
0.2240000000	network directly
0.2240000000	single output
0.2240000000	successful results
0.2240000000	network outperforms
0.2240000000	natural approach
0.2240000000	network algorithm
0.2240000000	network depth
0.2240000000	network approaches
0.2240000000	network weights
0.2240000000	network learning
0.2240000000	network approach
0.2240000000	visual domain
0.2240000000	visual classification
0.2240000000	single deep
0.2240000000	image instance
0.2240000000	network produces
0.2240000000	introduce deep
0.2240000000	introduce additional
0.2240000000	image plane
0.2240000000	answering dataset
0.2240000000	supervised classifiers
0.2240000000	traditional cnn
0.2240000000	reasoning methods
0.2240000000	image texture
0.2240000000	image e.g
0.2240000000	language information
0.2240000000	experimentally evaluate
0.2240000000	performance computing
0.2240000000	performance improves
0.2240000000	performance criteria
0.2240000000	performance i.e
0.2240000000	scale factor
0.2240000000	performance levels
0.2240000000	performance benefits
0.2240000000	performance results
0.2240000000	high performing
0.2240000000	single data
0.2240000000	resolution task
0.2240000000	outperforms related
0.2240000000	supervised image
0.2240000000	resolution imaging
0.2240000000	network optimization
0.2240000000	theoretical support
0.2240000000	supervised clustering
0.2240000000	network level
0.2240000000	high coverage
0.2240000000	mapping functions
0.2240000000	theoretical contribution
0.2240000000	machine based
0.2240000000	thresholding algorithm
0.2240000000	high scalability
0.2240000000	outperforms alternative
0.2240000000	image related
0.2240000000	raw image
0.2240000000	outperforms traditional
0.2240000000	answering models
0.2240000000	simultaneous detection
0.2240000000	unsupervised framework
0.2240000000	posed problem
0.2240000000	visual elements
0.2240000000	performance competitive
0.2240000000	single algorithm
0.2240000000	network classifier
0.2240000000	single low
0.2240000000	single dataset
0.2240000000	single source
0.2240000000	single depth
0.2240000000	high utility
0.2240000000	traditional approach
0.2240000000	performance differences
0.2240000000	image guided
0.2240000000	traditional linear
0.2240000000	single tree
0.2240000000	image similarity
0.2240000000	scale features
0.2240000000	stochastic modeling
0.2240000000	language features
0.2240000000	network framework
0.2240000000	single input
0.2240000000	stochastic game
0.2240000000	stochastic multi
0.2240000000	performance comparison
0.2240000000	language based
0.2240000000	network constrained
0.2240000000	network algorithms
0.2240000000	solution obtained
0.2240000000	traditional data
0.2240000000	image noise
0.2240000000	sequence level
0.2240000000	image background
0.2240000000	single scale
0.2240000000	image manifold
0.2240000000	image tags
0.2240000000	image context
0.2240000000	network accuracy
0.2240000000	image properties
0.2240000000	image structures
0.2240000000	traditional learning
0.2240000000	high end
0.2240000000	image structure
0.2240000000	language parsing
0.2240000000	image semantic
0.2240000000	image interpretation
0.2240000000	image sentence
0.2240000000	significantly enhance
0.2240000000	image labels
0.2240000000	image statistics
0.2240000000	image classifier
0.2240000000	image label
0.2240000000	network cnn
0.2240000000	dual optimization
0.2240000000	algorithms achieve
0.2240000000	network policies
0.2240000000	reasoning processes
0.2240000000	performance characteristics
0.2240000000	performance increase
0.2240000000	single level
0.2240000000	network activity
0.2240000000	semi synthetic
0.2240000000	datasets verify
0.2240000000	network layer
0.2240000000	network modeling
0.2240000000	answering task
0.2240000000	high compression
0.2240000000	image sensors
0.2240000000	language sentences
0.2240000000	traditional statistical
0.2240000000	network security
0.2240000000	natural environment
0.2240000000	single set
0.2240000000	language applications
0.2240000000	network performs
0.2240000000	performance assessment
0.2240000000	single class
0.2240000000	image characteristics
0.2240000000	theoretical perspective
0.2240000000	theoretical aspects
0.2240000000	supervised classifier
0.2240000000	regret learning
0.2240000000	convex procedure
0.2240000000	network achieves
0.2240000000	image appearance
0.2240000000	datasets showing
0.2240000000	network theory
0.2240000000	datasets captured
0.2240000000	difference methods
0.2240000000	unsupervised model
0.2240000000	high diversity
0.2240000000	high error
0.2240000000	image distortion
0.2240000000	generate natural
0.2240000000	high correlation
0.2240000000	image size
0.2240000000	framework significantly
0.2240000000	parallel algorithms
0.2240000000	reduce memory
0.2240000000	image intensity
0.2240000000	framework exploits
0.2240000000	prior results
0.2240000000	involving large
0.2240000000	solution sets
0.2240000000	network features
0.2240000000	regret analysis
0.2240000000	image modeling
0.2240000000	language called
0.2240000000	dual space
0.2240000000	network technique
0.2240000000	network representation
0.2240000000	network generates
0.2240000000	performance significantly
0.2240000000	image contrast
0.2240000000	outperforms baseline
0.2240000000	theoretical performance
0.2240000000	single forward
0.2240000000	visual scene
0.2240000000	image frame
0.2240000000	image agnostic
0.2240000000	stochastic computing
0.2240000000	network named
0.2240000000	act classification
0.2240000000	datasets e.g
0.2240000000	network classifiers
0.2240000000	image depth
0.2240000000	significantly benefit
0.2240000000	network i.e
0.2240000000	extensive study
0.2240000000	network nn
0.2240000000	network inference
0.2240000000	supervised method
0.2240000000	single type
0.2240000000	network techniques
0.2240000000	outperforms conventional
0.2240000000	image segments
0.2240000000	single index
0.2240000000	reasoning algorithms
0.2240000000	image capture
0.2240000000	high volume
0.2240000000	emerging applications
0.2240000000	traditional method
0.2240000000	algorithms called
0.2240000000	network connectivity
0.2240000000	discrete hidden
0.2240000000	discrete models
0.2240000000	traditional techniques
0.2240000000	language inference
0.2240000000	verification accuracy
0.2240000000	language complexity
0.2240000000	visual effects
0.2240000000	image model
0.2240000000	distributional information
0.2240000000	solution space
0.2240000000	stochastic problems
0.2240000000	image frames
0.2240000000	discrete state
0.2240000000	derive theoretical
0.2240000000	high predictive
0.2240000000	supervised manner
0.2240000000	frequency data
0.2240000000	datasets collected
0.2240000000	image tagging
0.2240000000	reduce computational
0.2240000000	prediction results
0.2240000000	theoretical studies
0.2240000000	network outputs
0.2240000000	framework capable
0.2240000000	network configuration
0.2240000000	supervised video
0.2240000000	network module
0.2240000000	high cost
0.2240000000	prediction techniques
0.2240000000	image categories
0.2240000000	network shows
0.2240000000	phase space
0.2240000000	single cnn
0.2240000000	network properties
0.2240000000	single point
0.2240000000	distribution function
0.2240000000	image semantics
0.2240000000	single sample
0.2240000000	sequence models
0.2240000000	stage process
0.2240000000	discrete set
0.2240000000	outperforms recent
0.2240000000	network prediction
0.2240000000	visual domains
0.2240000000	single component
0.2240000000	supervised unsupervised
0.2240000000	negative result
0.2240000000	theoretical predictions
0.2240000000	generate large
0.2240000000	unsupervised problems
0.2240000000	visual feature
0.2240000000	generate data
0.2240000000	cancer data
0.2240000000	generate multiple
0.2240000000	high energy
0.2240000000	network gan
0.2240000000	network configurations
0.2240000000	language text
0.2240000000	network performance
0.2240000000	high sensitivity
0.2240000000	algorithms fail
0.2240000000	datasets illustrate
0.2240000000	network method
0.2240000000	inspired algorithm
0.2240000000	image labeling
0.2240000000	parallel inference
0.2240000000	frequency based
0.2240000000	high scores
0.2240000000	visual descriptors
0.2240000000	visual context
0.2240000000	visual analysis
0.2240000000	visual categories
0.2240000000	visual processing
0.2240000000	visual systems
0.2240000000	visual field
0.2240000000	inspired models
0.2240000000	visual semantics
0.2240000000	discrete markov
0.2240000000	evidence shows
0.2240000000	visual world
0.2240000000	stochastic networks
0.2240000000	single images
0.2240000000	network methods
0.2240000000	stochastic version
0.2240000000	performance prediction
0.2240000000	stage framework
0.2240000000	parallel architecture
0.2240000000	prediction quality
0.2240000000	performance obtained
0.2240000000	inspired algorithms
0.2240000000	distribution parameters
0.2240000000	prediction uncertainty
0.2240000000	image mining
0.2240000000	high similarity
0.2240000000	natural systems
0.2240000000	language question
0.2240000000	network activations
0.2240000000	image input
0.2240000000	single network
0.2240000000	supervised neural
0.2240000000	image modalities
0.2240000000	network science
0.2240000000	prediction process
0.2240000000	algorithms converge
0.2240000000	supervised scenario
0.2240000000	strong statistical
0.2240000000	framework enables
0.2240000000	generate synthetic
0.2240000000	framework achieves
0.2240000000	relational information
0.2240000000	discrete action
0.2240000000	dual learning
0.2240000000	network construction
0.2240000000	algorithms provide
0.2240000000	high memory
0.2240000000	parallel text
0.2240000000	parallel machine
0.2240000000	discrete domains
0.2240000000	outperforms strong
0.2240000000	prediction function
0.2240000000	high complexity
0.2240000000	extends existing
0.2240000000	algorithms suffer
0.2240000000	sequence based
0.2240000000	machine scheduling
0.2240000000	strong empirical
0.2240000000	unsupervised data
0.2240000000	framework outperforms
0.2240000000	framework includes
0.2240000000	extensive training
0.2240000000	framework presented
0.2240000000	supervised techniques
0.2240000000	localization tasks
0.2240000000	visual datasets
0.2240000000	localization task
0.2240000000	natural assumptions
0.2240000000	natural data
0.2240000000	visual interpretation
0.2240000000	natural question
0.2240000000	natural environments
0.2240000000	natural choice
0.2240000000	natural generalization
0.2240000000	natural gradients
0.2240000000	natural evolution
0.2240000000	natural signals
0.2240000000	inspired optimization
0.2240000000	supervised information
0.2240000000	algorithms produce
0.2240000000	prediction algorithm
0.2240000000	supervised feature
0.2240000000	algorithms perform
0.2240000000	language query
0.2240000000	visual space
0.2240000000	language tasks
0.2240000000	language description
0.2240000000	language descriptions
0.2240000000	language data
0.2240000000	language structure
0.2240000000	language variation
0.2240000000	language texts
0.2240000000	language translation
0.2240000000	dimensional parameter
0.2240000000	difference learning
0.2240000000	convex minimization
0.2240000000	solution set
0.2240000000	stochastic algorithm
0.2240000000	significantly increases
0.2240000000	stochastic process
0.2240000000	dimensional convolutional
0.2240000000	supervised localization
0.2240000000	language technology
0.2240000000	cnns based
0.2240000000	parallel approach
0.2240000000	observed behavior
0.2240000000	language queries
0.2240000000	high rate
0.2240000000	algorithms exist
0.2240000000	experimentally shown
0.2240000000	extensive set
0.2240000000	stochastic dynamics
0.2240000000	performance depends
0.2240000000	solution concept
0.2240000000	successful approaches
0.2240000000	algorithms run
0.2240000000	visual attribute
0.2240000000	stochastic models
0.2240000000	relational knowledge
0.2240000000	datasets reveal
0.2240000000	involving human
0.2240000000	localization problem
0.2240000000	parallel algorithm
0.2240000000	source images
0.2240000000	successful application
0.2240000000	high demand
0.2240000000	strong convergence
0.2240000000	algorithms assume
0.2240000000	stochastic context
0.2240000000	compare results
0.2240000000	algorithms improve
0.2240000000	datasets demonstrates
0.2240000000	stochastic environments
0.2240000000	parallel processing
0.2240000000	extensive literature
0.2240000000	algorithms outperform
0.2240000000	stage convolutional
0.2240000000	discrete probability
0.2240000000	distribution estimation
0.2240000000	discrete distributions
0.2240000000	stochastic sampling
0.2240000000	stochastic search
0.2240000000	stochastic model
0.2240000000	stochastic nature
0.2240000000	high frame
0.2240000000	factor approximation
0.2240000000	strong baseline
0.2240000000	empirical comparison
0.2240000000	high detection
0.2240000000	high risk
0.2240000000	high impact
0.2240000000	high data
0.2240000000	high prediction
0.2240000000	high variability
0.2240000000	high reliability
0.2240000000	high recognition
0.2240000000	high degree
0.2240000000	high accuracies
0.2240000000	high potential
0.2240000000	high pass
0.2240000000	scale bayesian
0.2240000000	source machine
0.2240000000	algorithms typically
0.2240000000	algorithms e.g
0.2240000000	algorithms designed
0.2240000000	algorithms focus
0.2240000000	algorithms learn
0.2240000000	algorithms i.e
0.2240000000	neighborhood structure
0.2240000000	parallel optimization
0.2240000000	traditional deep
0.2240000000	performance scores
0.2240000000	performance gap
0.2240000000	network designs
0.2240000000	datasets demonstrating
0.2240000000	parts based
0.2240000000	verification problems
0.2240000000	relational structure
0.2240000000	dimensional geometric
0.2240000000	point selection
0.2240000000	ranking model
0.2240000000	ranking algorithms
0.2240000000	ranking algorithm
0.2240000000	ranking based
0.2240000000	ranking approach
0.2240000000	ranking task
0.2240000000	distributional model
0.2240000000	derive lower
0.2240000000	derive conditions
0.2240000000	computation graph
0.2240000000	computation power
0.2240000000	computation graphs
0.2240000000	computation efficient
0.2240000000	computation efficiency
0.2240000000	faster computation
0.2240000000	faster inference
0.2240000000	faster speed
0.2240000000	basis set
0.2240000000	solution methods
0.2240000000	comprehensive experimental
0.2240000000	comprehensive study
0.2240000000	comprehensive dataset
0.2240000000	comprehensive evaluation
0.2240000000	perceptron learning
0.2240000000	background segmentation
0.2240000000	dimensional representations
0.2240000000	resolution feature
0.2240000000	factor models
0.2240000000	factor model
0.2240000000	genetic search
0.2240000000	genetic data
0.2240000000	hardware based
0.2240000000	perfect information
0.2240000000	center based
0.2240000000	node features
0.2240000000	3d volumetric
0.2240000000	invariant image
0.2240000000	frequency analysis
0.2240000000	frequency information
0.2240000000	frequency distribution
0.2240000000	resolution method
0.2240000000	resolution reconstruction
0.2240000000	point methods
0.2240000000	point problem
0.2240000000	point estimation
0.2240000000	point estimate
0.2240000000	point algorithms
0.2240000000	dimensional problems
0.2240000000	dimensional latent
0.2240000000	dimensional datasets
0.2240000000	dimensional discrete
0.2240000000	dimensional continuous
0.2240000000	dimensional input
0.2240000000	dimensional inputs
0.2240000000	dimensional settings
0.2240000000	dimensional binary
0.2240000000	dimensional manifold
0.2240000000	dimensional regression
0.2240000000	dimensional case
0.2240000000	dimensional distributions
0.2240000000	dimensional structures
0.2240000000	dimensional features
0.2240000000	dimensional visual
0.2240000000	dimensional nonlinear
0.2240000000	dimensional learning
0.2240000000	dimensional classification
0.2240000000	dimensional setting
0.2240000000	dimensional gaussian
0.2240000000	dimensional objects
0.2240000000	dimensional structure
0.2240000000	dimensional real
0.2240000000	dimensional sparse
0.2240000000	dimensional signals
0.2240000000	dimensional signal
0.2240000000	dimensional images
0.2240000000	intelligent machine
0.2240000000	incomplete knowledge
0.2240000000	involving multiple
0.2240000000	geometric analysis
0.2240000000	geometric framework
0.2240000000	geometric constraints
0.2240000000	negative results
0.2240000000	pool based
0.2240000000	captured images
0.2240000000	facial analysis
0.2240000000	intelligent decision
0.2240000000	gmm based
0.2240000000	person recognition
0.2240000000	person detection
0.2240000000	person specific
0.2240000000	accelerate training
0.2240000000	sufficiently high
0.2240000000	comparative results
0.2240000000	comparative performance
0.2240000000	comparative experiments
0.2240000000	rigorous analysis
0.2240000000	tagging task
0.2240000000	heuristics based
0.2240000000	stage classification
0.2240000000	stage algorithm
0.2240000000	stage approach
0.2240000000	stage method
0.2240000000	stage methods
0.2240000000	neighborhood information
0.2240000000	wavelet analysis
0.2240000000	equation models
0.2240000000	equation model
0.2240000000	localization error
0.2240000000	minimum number
0.2240000000	aware multi
0.2240000000	efficient exact
0.2240000000	aware network
0.2240000000	product space
0.2240000000	order linear
0.2240000000	producing high
0.2240000000	product algorithm
0.2240000000	synthesis framework
0.2240000000	neighbor classification
0.2240000000	linguistic complexity
0.2240000000	linguistic properties
0.2240000000	recognizing human
0.2240000000	event related
0.2240000000	event prediction
0.2240000000	statistical assumptions
0.2240000000	modelling approach
0.2240000000	realistic applications
0.2240000000	realistic datasets
0.2240000000	essential step
0.2240000000	set method
0.2240000000	contextual multi
0.2240000000	report presents
0.2240000000	special class
0.2240000000	represent complex
0.2240000000	represent data
0.2240000000	modal features
0.2240000000	mining problems
0.2240000000	mining technique
0.2240000000	mining method
0.2240000000	mining based
0.2240000000	mining tasks
0.2240000000	mining applications
0.2240000000	mining algorithm
0.2240000000	special properties
0.2240000000	special structure
0.2240000000	nlp techniques
0.2240000000	essential properties
0.2240000000	modelling techniques
0.2240000000	underlying dynamics
0.2240000000	realistic image
0.2240000000	efficient linear
0.2240000000	hand motion
0.2240000000	transformation function
0.2240000000	transformation networks
0.2240000000	unknown distribution
0.2240000000	condition number
0.2240000000	underlying distribution
0.2240000000	exponential distribution
0.2240000000	test instances
0.2240000000	performing method
0.2240000000	performing inference
0.2240000000	efficient information
0.2240000000	promising accuracy
0.2240000000	aware image
0.2240000000	deep fully
0.2240000000	efficient solution
0.2240000000	svm classification
0.2240000000	efficient hardware
0.2240000000	unknown data
0.2240000000	unknown distributions
0.2240000000	represent objects
0.2240000000	fcn based
0.2240000000	domain adaptive
0.2240000000	unknown parameters
0.2240000000	types including
0.2240000000	order theory
0.2240000000	dynamics based
0.2240000000	types e.g
0.2240000000	order pooling
0.2240000000	expected cost
0.2240000000	hybrid neural
0.2240000000	hybrid domains
0.2240000000	hybrid systems
0.2240000000	hybrid method
0.2240000000	hybrid linear
0.2240000000	hybrid learning
0.2240000000	hybrid model
0.2240000000	hybrid architecture
0.2240000000	hybrid methods
0.2240000000	spatial representation
0.2240000000	spatial structure
0.2240000000	spatial regions
0.2240000000	successfully train
0.2240000000	successfully learn
0.2240000000	successfully solve
0.2240000000	increase accuracy
0.2240000000	augmented data
0.2240000000	numerous algorithms
0.2240000000	labeling task
0.2240000000	labeling accuracy
0.2240000000	efficient feature
0.2240000000	aware learning
0.2240000000	techniques proposed
0.2240000000	techniques applied
0.2240000000	efficient optimization
0.2240000000	techniques e.g
0.2240000000	techniques require
0.2240000000	performing methods
0.2240000000	order polynomial
0.2240000000	quadratic complexity
0.2240000000	finding solutions
0.2240000000	finding problem
0.2240000000	deep net
0.2240000000	control parameters
0.2240000000	svm training
0.2240000000	underlying network
0.2240000000	underlying latent
0.2240000000	rating data
0.2240000000	underlying structure
0.2240000000	reduction based
0.2240000000	dependency structure
0.2240000000	deep autoencoder
0.2240000000	descriptor based
0.2240000000	gradient vector
0.2240000000	statistical complexity
0.2240000000	statistical error
0.2240000000	statistical method
0.2240000000	statistical decision
0.2240000000	statistical tools
0.2240000000	statistical framework
0.2240000000	statistical approach
0.2240000000	statistical measures
0.2240000000	statistical structure
0.2240000000	statistical characteristics
0.2240000000	statistical hypothesis
0.2240000000	statistical information
0.2240000000	statistical problem
0.2240000000	statistical features
0.2240000000	statistical approaches
0.2240000000	statistical test
0.2240000000	statistical techniques
0.2240000000	accurate image
0.2240000000	ml based
0.2240000000	research challenges
0.2240000000	research aims
0.2240000000	remarkable results
0.2240000000	research paper
0.2240000000	research studies
0.2240000000	research groups
0.2240000000	research shows
0.2240000000	spatial regularization
0.2240000000	numerous methods
0.2240000000	numerous experiments
0.2240000000	great attention
0.2240000000	great performance
0.2240000000	view based
0.2240000000	chain model
0.2240000000	resources e.g
0.2240000000	test corpus
0.2240000000	efficient data
0.2240000000	support set
0.2240000000	set mining
0.2240000000	set valued
0.2240000000	set solvers
0.2240000000	set model
0.2240000000	test results
0.2240000000	set accuracy
0.2240000000	set size
0.2240000000	building models
0.2240000000	product images
0.2240000000	understanding tasks
0.2240000000	validation error
0.2240000000	validation accuracy
0.2240000000	reward based
0.2240000000	combines features
0.2240000000	descriptor space
0.2240000000	efficient scheme
0.2240000000	hybrid approaches
0.2240000000	expected loss
0.2240000000	gradient learning
0.2240000000	gradient computation
0.2240000000	gradient update
0.2240000000	holistic approach
0.2240000000	build models
0.2240000000	health problem
0.2240000000	understanding task
0.2240000000	understanding human
0.2240000000	order terms
0.2240000000	order effects
0.2240000000	order algorithms
0.2240000000	order stochastic
0.2240000000	accurate localization
0.2240000000	order approximation
0.2240000000	set programs
0.2240000000	order selection
0.2240000000	order preserving
0.2240000000	order correlations
0.2240000000	order markov
0.2240000000	order optimal
0.2240000000	order methods
0.2240000000	order feature
0.2240000000	order stationary
0.2240000000	order interactions
0.2240000000	order language
0.2240000000	order information
0.2240000000	order representations
0.2240000000	vision task
0.2240000000	vision recognition
0.2240000000	vision sensor
0.2240000000	vision techniques
0.2240000000	vision problem
0.2240000000	vision algorithm
0.2240000000	vision datasets
0.2240000000	vision community
0.2240000000	vision language
0.2240000000	spatial correlation
0.2240000000	domain i.e
0.2240000000	validation performance
0.2240000000	accurate representation
0.2240000000	accurate solution
0.2240000000	accurate identification
0.2240000000	accurate solutions
0.2240000000	accurate model
0.2240000000	accurate object
0.2240000000	accurate models
0.2240000000	offline training
0.2240000000	report experiments
0.2240000000	typical case
0.2240000000	typical applications
0.2240000000	underlying model
0.2240000000	expected error
0.2240000000	deep structure
0.2240000000	deep spatial
0.2240000000	deep learned
0.2240000000	efficient approximation
0.2240000000	vision application
0.2240000000	deep framework
0.2240000000	deep semantic
0.2240000000	deep visual
0.2240000000	minimum error
0.2240000000	deep bidirectional
0.2240000000	deep nonlinear
0.2240000000	deep understanding
0.2240000000	gradient problem
0.2240000000	linguistic data
0.2240000000	modal multi
0.2240000000	parameters including
0.2240000000	deep discriminative
0.2240000000	deep embedding
0.2240000000	nlp models
0.2240000000	reduction algorithms
0.2240000000	deep memory
0.2240000000	efficient iterative
0.2240000000	modeling assumptions
0.2240000000	deep directed
0.2240000000	efficient computational
0.2240000000	minimum information
0.2240000000	essential features
0.2240000000	efficient techniques
0.2240000000	neighbor algorithm
0.2240000000	control strategies
0.2240000000	oriented knowledge
0.2240000000	consuming task
0.2240000000	test collection
0.2240000000	reduction methods
0.2240000000	deep hierarchical
0.2240000000	modeling technique
0.2240000000	modal learning
0.2240000000	modeling approaches
0.2240000000	sharing information
0.2240000000	deep transform
0.2240000000	efficient scalable
0.2240000000	statistical theory
0.2240000000	efficient variational
0.2240000000	widely popular
0.2240000000	ordering based
0.2240000000	accurate inference
0.2240000000	deep object
0.2240000000	efficient solvers
0.2240000000	vision approaches
0.2240000000	recovery algorithms
0.2240000000	efficient tool
0.2240000000	vision speech
0.2240000000	varying quality
0.2240000000	modeling complex
0.2240000000	results illustrate
0.2240000000	employing deep
0.2240000000	research works
0.2240000000	accurate method
0.2240000000	deep predictive
0.2240000000	control tasks
0.2240000000	mining approach
0.2240000000	efficient computation
0.2240000000	view points
0.2240000000	results generated
0.2240000000	special form
0.2240000000	statistical performance
0.2240000000	cut problem
0.2240000000	control strategy
0.2240000000	recovery methods
0.2240000000	performing model
0.2240000000	reduction compared
0.2240000000	traffic analysis
0.2240000000	deep feedforward
0.2240000000	gradient optimization
0.2240000000	underlying state
0.2240000000	test performance
0.2240000000	efficient exploration
0.2240000000	unknown function
0.2240000000	deep attention
0.2240000000	accurate algorithms
0.2240000000	synthesis method
0.2240000000	results support
0.2240000000	realistic data
0.2240000000	efficient active
0.2240000000	efficient heuristic
0.2240000000	modeling process
0.2240000000	spatial constraints
0.2240000000	nlp task
0.2240000000	gradient magnitude
0.2240000000	view deep
0.2240000000	domain based
0.2240000000	efficient kernel
0.2240000000	efficient planning
0.2240000000	deep multimodal
0.2240000000	deep machine
0.2240000000	efficient unsupervised
0.2240000000	recovery problems
0.2240000000	results include
0.2240000000	factors including
0.2240000000	reduction algorithm
0.2240000000	report significant
0.2240000000	linguistic input
0.2240000000	results significantly
0.2240000000	results validate
0.2240000000	view representation
0.2240000000	unknown parameter
0.2240000000	domain gap
0.2240000000	hybrid multi
0.2240000000	module networks
0.2240000000	deep regression
0.2240000000	efficient architecture
0.2240000000	gradient domain
0.2240000000	line segmentation
0.2240000000	results extend
0.2240000000	deep autoencoders
0.2240000000	typical deep
0.2240000000	results verify
0.2240000000	collecting data
0.2240000000	ordering problem
0.2240000000	efficient clustering
0.2240000000	results demonstrating
0.2240000000	degree distribution
0.2240000000	properties e.g
0.2240000000	aware features
0.2240000000	underlying probability
0.2240000000	efficient implementations
0.2240000000	ray image
0.2240000000	predict human
0.2240000000	results improve
0.2240000000	modeling problems
0.2240000000	code generation
0.2240000000	aware neural
0.2240000000	physically based
0.2240000000	test sample
0.2240000000	neighbor method
0.2240000000	domain size
0.2240000000	factors e.g
0.2240000000	offline learning
0.2240000000	aware deep
0.2240000000	results open
0.2240000000	results revealed
0.2240000000	code learning
0.2240000000	reward distribution
0.2240000000	previous deep
0.2240000000	results demonstrated
0.2240000000	simulations demonstrate
0.2240000000	results comparing
0.2240000000	development process
0.2240000000	test samples
0.2240000000	mining process
0.2240000000	set cover
0.2240000000	hard task
0.2240000000	shown significant
0.2240000000	control task
0.2240000000	artificial agent
0.2240000000	deep matching
0.2240000000	accurate recognition
0.2240000000	mining methods
0.2240000000	results competitive
0.2240000000	previous neural
0.2240000000	efficient sparse
0.2240000000	artificial datasets
0.2240000000	examples i.e
0.2240000000	efficient approaches
0.2240000000	deep unsupervised
0.2240000000	for tracking
0.2240000000	promising potential
0.2240000000	promising future
0.2240000000	efficient evaluation
0.2240000000	results presented
0.2240000000	efficient bayesian
0.2240000000	efficient technique
0.2240000000	results establish
0.2240000000	expected performance
0.2240000000	recovery performance
0.2240000000	efficient gradient
0.2240000000	vision researchers
0.2240000000	efficient probabilistic
0.2240000000	domain information
0.2240000000	promising solution
0.2240000000	for sparse
0.2240000000	examples including
0.2240000000	results outperforming
0.2240000000	statistical consistency
0.2240000000	efficient adaptive
0.2240000000	efficient ways
0.2240000000	efficient distributed
0.2240000000	results prove
0.2240000000	results including
0.2240000000	research proposes
0.2240000000	test sentences
0.2240000000	utilize deep
0.2240000000	modeling tasks
0.2240000000	promising method
0.2240000000	statistical data
0.2240000000	modeling approach
0.2240000000	research project
0.2240000000	statistical evidence
0.2240000000	efficient local
0.2240000000	performing models
0.2240000000	statistical accuracy
0.2240000000	efficient classification
0.2240000000	view images
0.2240000000	underlying optimization
0.2240000000	modeling method
0.2240000000	modeling problem
0.2240000000	synthesis model
0.2240000000	statistical dependencies
0.2240000000	underlying data
0.2240000000	promising approach
0.2240000000	modeling task
0.2240000000	control actions
0.2240000000	polynomial size
0.2240000000	research question
0.2240000000	nlp methods
0.2240000000	research problems
0.2240000000	efficient greedy
0.2240000000	support systems
0.2240000000	modeling strategy
0.2240000000	recovery algorithm
0.2240000000	test dataset
0.2240000000	statistical power
0.2240000000	collected datasets
0.2240000000	modeling sequences
0.2240000000	modeling methods
0.2240000000	modeling temporal
0.2240000000	modeling human
0.2240000000	modeling language
0.2240000000	test points
0.2240000000	modeling tool
0.2240000000	order model
0.2240000000	statistical problems
0.2240000000	underlying problem
0.2240000000	statistical classification
0.2240000000	efficient parallel
0.2240000000	test case
0.2240000000	essential matrix
0.2240000000	parameters directly
0.2240000000	microscopy data
0.2240000000	support sets
0.2240000000	support tool
0.2240000000	collect data
0.2240000000	linguistic variables
0.2240000000	domain datasets
0.2240000000	previous study
0.2240000000	order probabilistic
0.2240000000	expected accuracy
0.2240000000	examples demonstrate
0.2240000000	correlated data
0.2240000000	domain expert
0.2240000000	successfully trained
0.2240000000	hard optimization
0.2240000000	previous tasks
0.2240000000	vision research
0.2240000000	building process
0.2240000000	vision methods
0.2240000000	set approach
0.2240000000	event systems
0.2240000000	efficient design
0.2240000000	efficient sampling
0.2240000000	efficient strategy
0.2240000000	dependency based
0.2240000000	gradient free
0.2240000000	properties including
0.2240000000	line detection
0.2240000000	previous systems
0.2240000000	domain adversarial
0.2240000000	efficient procedure
0.2240000000	control mechanism
0.2240000000	efficient processing
0.2240000000	shown experimentally
0.2240000000	techniques provide
0.2240000000	development data
0.2240000000	efficient network
0.2240000000	efficient object
0.2240000000	efficient multi
0.2240000000	threshold based
0.2240000000	product search
0.2240000000	results shows
0.2240000000	linguistic structure
0.2240000000	control knowledge
0.2240000000	gradient techniques
0.2240000000	accurate approximation
0.2240000000	generalizes existing
0.2240000000	accurate classifiers
0.2240000000	previous model
0.2240000000	previous solutions
0.2240000000	previous theoretical
0.2240000000	separate models
0.2240000000	labeling problems
0.2240000000	previous frames
0.2240000000	previous approach
0.2240000000	previous method
0.2240000000	previous algorithm
0.2240000000	previous paper
0.2240000000	previous techniques
0.2240000000	previous literature
0.2240000000	understanding deep
0.2240000000	unknown objects
0.2240000000	oriented approach
0.2240000000	efficient convolutional
0.2240000000	order optimality
0.2240000000	reduction method
0.2240000000	statistical distribution
0.2240000000	test point
0.2240000000	efficient search
0.2240000000	test phase
0.2240000000	efficient neural
0.2240000000	efficient alternative
0.2240000000	efficient representation
0.2240000000	efficient image
0.2240000000	efficient framework
0.2240000000	efficient approximate
0.2240000000	efficient recognition
0.2240000000	efficient numerical
0.2240000000	efficient human
0.2240000000	efficient reasoning
0.2240000000	sketch based
0.2240000000	varying complexity
0.2240000000	correction method
0.2240000000	examples showing
0.2240000000	examples illustrate
0.2240000000	ml models
0.2240000000	dependency information
0.2240000000	dependency networks
0.2240000000	generalized framework
0.2240000000	consuming process
0.2240000000	descriptor learning
0.2240000000	super human
0.2240000000	svm models
0.2240000000	collected dataset
0.2240000000	polynomial complexity
0.2240000000	quadratic functions
0.2240000000	quadratic optimization
0.2240000000	provably efficient
0.2240000000	mcmc method
0.2240000000	mcmc methods
0.2240000000	cut based
0.2240000000	satellite data
0.2240000000	satisfiability problem
0.2240000000	deformable model
0.2240000000	branch network
0.2240000000	microscopy image
0.2240000000	online model
0.2240000000	passing algorithm
0.2240000000	final segmentation
0.2240000000	important concepts
0.2240000000	parametric method
0.2240000000	existing network
0.2240000000	segmented image
0.2240000000	scheme outperforms
0.2240000000	measured data
0.2240000000	complete domain
0.2240000000	complete problem
0.2240000000	complete solution
0.2240000000	sound classification
0.2240000000	complete knowledge
0.2240000000	improved generalization
0.2240000000	sharp image
0.2240000000	filter parameters
0.2240000000	iterative solution
0.2240000000	stream based
0.2240000000	inter task
0.2240000000	parametric form
0.2240000000	parametric approach
0.2240000000	parametric bayesian
0.2240000000	detecting objects
0.2240000000	process large
0.2240000000	discriminative representations
0.2240000000	map based
0.2240000000	map prediction
0.2240000000	map matching
0.2240000000	important regions
0.2240000000	expression analysis
0.2240000000	important image
0.2240000000	superior accuracy
0.2240000000	iterative clustering
0.2240000000	regularized problems
0.2240000000	final result
0.2240000000	confidence level
0.2240000000	sound recognition
0.2240000000	stream network
0.2240000000	extra information
0.2240000000	extra data
0.2240000000	em algorithms
0.2240000000	em framework
0.2240000000	em based
0.2240000000	heuristic functions
0.2240000000	heuristic approaches
0.2240000000	tracking approaches
0.2240000000	online estimation
0.2240000000	discriminative information
0.2240000000	discriminative loss
0.2240000000	online action
0.2240000000	visualization method
0.2240000000	inter domain
0.2240000000	iterative method
0.2240000000	simulation study
0.2240000000	simulation framework
0.2240000000	iterative process
0.2240000000	simulation data
0.2240000000	important components
0.2240000000	algorithmic information
0.2240000000	algorithmic approach
0.2240000000	superior quality
0.2240000000	regularized optimization
0.2240000000	confidence based
0.2240000000	mixture distributions
0.2240000000	process data
0.2240000000	signal representation
0.2240000000	inference technique
0.2240000000	heuristic function
0.2240000000	final decision
0.2240000000	final results
0.2240000000	heuristic method
0.2240000000	group structure
0.2240000000	central problem
0.2240000000	improved results
0.2240000000	improved method
0.2240000000	biological function
0.2240000000	modern large
0.2240000000	stream convolutional
0.2240000000	big datasets
0.2240000000	symbolic data
0.2240000000	online community
0.2240000000	expression classification
0.2240000000	net structure
0.2240000000	net based
0.2240000000	multivariate analysis
0.2240000000	regularized deep
0.2240000000	matrix obtained
0.2240000000	important result
0.2240000000	m log
0.2240000000	inference accuracy
0.2240000000	final classification
0.2240000000	matrix operations
0.2240000000	matrix adaptation
0.2240000000	matrix product
0.2240000000	encode information
0.2240000000	reasonable results
0.2240000000	matrix theory
0.2240000000	online stochastic
0.2240000000	propagation approach
0.2240000000	em images
0.2240000000	wise classification
0.2240000000	map representation
0.2240000000	called generalized
0.2240000000	called hierarchical
0.2240000000	technique outperforms
0.2240000000	tracking datasets
0.2240000000	difficult problem
0.2240000000	difficult challenge
0.2240000000	difficult tasks
0.2240000000	database size
0.2240000000	database demonstrate
0.2240000000	main purpose
0.2240000000	encouraging performance
0.2240000000	representative methods
0.2240000000	representative set
0.2240000000	tracking multiple
0.2240000000	tracking framework
0.2240000000	tracking results
0.2240000000	tracking accuracy
0.2240000000	tracking objects
0.2240000000	tracking challenge
0.2240000000	focus image
0.2240000000	published methods
0.2240000000	inference process
0.2240000000	inference network
0.2240000000	superior classification
0.2240000000	existing classification
0.2240000000	rate compared
0.2240000000	important task
0.2240000000	main objective
0.2240000000	rate reduction
0.2240000000	simpler models
0.2240000000	audio data
0.2240000000	theory based
0.2240000000	map solution
0.2240000000	existing unsupervised
0.2240000000	iterative learning
0.2240000000	wise semantic
0.2240000000	existing domain
0.2240000000	representative features
0.2240000000	region selection
0.2240000000	filter algorithm
0.2240000000	important data
0.2240000000	existing multi
0.2240000000	called probabilistic
0.2240000000	main advantage
0.2240000000	improved algorithm
0.2240000000	music classification
0.2240000000	improved convergence
0.2240000000	important questions
0.2240000000	planning process
0.2240000000	important research
0.2240000000	discriminative deep
0.2240000000	the costs
0.2240000000	main feature
0.2240000000	main features
0.2240000000	existing supervised
0.2240000000	final prediction
0.2240000000	multivariate linear
0.2240000000	leverage recent
0.2240000000	process requires
0.2240000000	rate based
0.2240000000	existing frameworks
0.2240000000	online version
0.2240000000	multivariate performance
0.2240000000	rate control
0.2240000000	heuristic approach
0.2240000000	block models
0.2240000000	important decisions
0.2240000000	important clinical
0.2240000000	modern datasets
0.2240000000	process modeling
0.2240000000	propagation network
0.2240000000	annotation task
0.2240000000	main characteristics
0.2240000000	the singleton
0.2240000000	improved predictive
0.2240000000	final output
0.2240000000	wise linear
0.2240000000	audio classification
0.2240000000	existing software
0.2240000000	online inference
0.2240000000	passing algorithms
0.2240000000	reasonable accuracy
0.2240000000	the sphere
0.2240000000	existing theoretical
0.2240000000	discriminative classifier
0.2240000000	existing alternatives
0.2240000000	process mixture
0.2240000000	discriminative feature
0.2240000000	existing single
0.2240000000	modern convolutional
0.2240000000	existing research
0.2240000000	algorithmic complexity
0.2240000000	iterative scheme
0.2240000000	systems require
0.2240000000	complete data
0.2240000000	hoc networks
0.2240000000	discriminative neural
0.2240000000	systems research
0.2240000000	systems trained
0.2240000000	discriminative methods
0.2240000000	systems provide
0.2240000000	propagation algorithms
0.2240000000	modern statistical
0.2240000000	required training
0.2240000000	heuristic methods
0.2240000000	annotation process
0.2240000000	fitting problems
0.2240000000	relationship detection
0.2240000000	rate prediction
0.2240000000	important property
0.2240000000	algorithmic approaches
0.2240000000	discriminative representation
0.2240000000	annotation tasks
0.2240000000	final model
0.2240000000	ann based
0.2240000000	main methods
0.2240000000	improved prediction
0.2240000000	main issues
0.2240000000	called em
0.2240000000	existing algorithm
0.2240000000	existing resources
0.2240000000	difficult optimization
0.2240000000	matrix vector
0.2240000000	modern applications
0.2240000000	inference schemes
0.2240000000	existing features
0.2240000000	existing tools
0.2240000000	embeddings based
0.2240000000	existing benchmarks
0.2240000000	existing studies
0.2240000000	incorporating information
0.2240000000	crucial step
0.2240000000	existing implementations
0.2240000000	potentially large
0.2240000000	reasonable performance
0.2240000000	important parts
0.2240000000	main approaches
0.2240000000	extracted feature
0.2240000000	called adaptive
0.2240000000	existing neural
0.2240000000	online content
0.2240000000	regularized learning
0.2240000000	existing theory
0.2240000000	process based
0.2240000000	important problem
0.2240000000	simulation based
0.2240000000	existing clustering
0.2240000000	existing strategies
0.2240000000	existing dataset
0.2240000000	iterative approach
0.2240000000	existing baselines
0.2240000000	improved training
0.2240000000	existing optimization
0.2240000000	important parameters
0.2240000000	important tool
0.2240000000	main types
0.2240000000	discuss applications
0.2240000000	important insights
0.2240000000	important content
0.2240000000	existing analysis
0.2240000000	signal analysis
0.2240000000	existing approach
0.2240000000	final step
0.2240000000	difficult cases
0.2240000000	existing training
0.2240000000	existing architectures
0.2240000000	theoretically optimal
0.2240000000	discuss potential
0.2240000000	existing learning
0.2240000000	improving accuracy
0.2240000000	important factor
0.2240000000	existing detection
0.2240000000	existing rnn
0.2240000000	discriminative clustering
0.2240000000	existing semantic
0.2240000000	called deep
0.2240000000	inference approach
0.2240000000	parametric regression
0.2240000000	existing bounds
0.2240000000	systems typically
0.2240000000	technique reduces
0.2240000000	process classification
0.2240000000	biological information
0.2240000000	the entity
0.2240000000	existing feature
0.2240000000	existing stochastic
0.2240000000	important topic
0.2240000000	main task
0.2240000000	incorporating domain
0.2240000000	inference speed
0.2240000000	online method
0.2240000000	discriminative ability
0.2240000000	assumption based
0.2240000000	wise training
0.2240000000	online video
0.2240000000	existing model
0.2240000000	map generation
0.2240000000	tracking benchmark
0.2240000000	theory approach
0.2240000000	group size
0.2240000000	tracking approach
0.2240000000	online clustering
0.2240000000	online user
0.2240000000	main advantages
0.2240000000	improved methods
0.2240000000	main theoretical
0.2240000000	important open
0.2240000000	systems including
0.2240000000	systems developed
0.2240000000	important step
0.2240000000	important challenges
0.2240000000	important issue
0.2240000000	important contribution
0.2240000000	important area
0.2240000000	important question
0.2240000000	important technique
0.2240000000	important issues
0.2240000000	important practical
0.2240000000	systems requires
0.2240000000	important source
0.2240000000	important steps
0.2240000000	existing inference
0.2240000000	identifying important
0.2240000000	inference steps
0.2240000000	inference task
0.2240000000	inference models
0.2240000000	inference approaches
0.2240000000	inference mechanism
0.2240000000	review recent
0.2240000000	existing knowledge
0.2240000000	called local
0.2240000000	online manner
0.2240000000	process i.e
0.2240000000	process regression
0.2240000000	process prior
0.2240000000	filter learning
0.2240000000	called dynamic
0.2240000000	final performance
0.2240000000	improved robustness
0.2240000000	filter based
0.2240000000	process priors
0.2240000000	important classes
0.2240000000	discuss open
0.2240000000	embeddings learned
0.2240000000	discriminative training
0.2240000000	discriminative patterns
0.2240000000	discriminative classifiers
0.2240000000	discriminative image
0.2240000000	discriminative object
0.2240000000	online multi
0.2240000000	online training
0.2240000000	online setting
0.2240000000	online decision
0.2240000000	online review
0.2240000000	online matrix
0.2240000000	important challenge
0.2240000000	complete information
0.2240000000	main finding
0.2240000000	main steps
0.2240000000	main focus
0.2240000000	main aim
0.2240000000	main issue
0.2240000000	main problems
0.2240000000	block based
0.2240000000	discriminative model
0.2240000000	online bayesian
0.2240000000	database images
0.2240000000	improved learning
0.2240000000	improved recognition
0.2240000000	called multi
0.2240000000	process involves
0.2240000000	rate parameter
0.2240000000	keyword based
0.2240000000	crucial task
0.2240000000	iterative procedure
0.2240000000	crucial problem
0.2240000000	scheme achieves
0.2240000000	scheme called
0.2240000000	improving generalization
0.2240000000	modern approaches
0.2240000000	block model
0.2240000000	main challenges
0.2240000000	region detection
0.2240000000	region segmentation
0.2240000000	main goal
0.2240000000	discovery rate
0.2240000000	embeddings trained
0.2240000000	discovery process
0.2240000000	discovery problem
0.2240000000	discovery method
0.2240000000	discovery algorithms
0.2240000000	management systems
0.2240000000	optimisation algorithms
0.2240000000	estimates obtained
0.2240000000	linear transform
0.2240000000	proposed methodology
0.2240000000	structure analysis
0.2240000000	simultaneously estimate
0.2240000000	learning setup
0.2240000000	uncertainty set
0.2240000000	linear unit
0.2240000000	information matrix
0.2240000000	attention layers
0.2240000000	proposed training
0.2240000000	constrained problem
0.2240000000	learning abilities
0.2240000000	learning solution
0.2240000000	constrained problems
0.2240000000	local scale
0.2240000000	learning analysis
0.2240000000	learning probabilistic
0.2240000000	joint semantic
0.2240000000	learning e.g
0.2240000000	proposed features
0.2240000000	approximate probabilistic
0.2240000000	information including
0.2240000000	linear bandit
0.2240000000	intermediate representation
0.2240000000	learning communities
0.2240000000	including data
0.2240000000	intermediate feature
0.2240000000	local contrast
0.2240000000	automated systems
0.2240000000	forest based
0.2240000000	query point
0.2240000000	generic deep
0.2240000000	generic learning
0.2240000000	hidden features
0.2240000000	query selection
0.2240000000	local region
0.2240000000	encoding method
0.2240000000	controlled experiments
0.2240000000	series datasets
0.2240000000	series analysis
0.2240000000	series data
0.2240000000	enable efficient
0.2240000000	earlier paper
0.2240000000	reported performance
0.2240000000	reported results
0.2240000000	lexical information
0.2240000000	lexical knowledge
0.2240000000	driven learning
0.2240000000	achieve low
0.2240000000	joint feature
0.2240000000	programming systems
0.2240000000	programming formulation
0.2240000000	programming models
0.2240000000	approximate algorithm
0.2240000000	approximate maximum
0.2240000000	approximate model
0.2240000000	positive probability
0.2240000000	proposed multi
0.2240000000	vanishing problem
0.2240000000	information learned
0.2240000000	rule learning
0.2240000000	rule set
0.2240000000	approximate methods
0.2240000000	score map
0.2240000000	score level
0.2240000000	yields significant
0.2240000000	optimisation methods
0.2240000000	simultaneously learning
0.2240000000	news detection
0.2240000000	automated machine
0.2240000000	feature pooling
0.2240000000	reliable method
0.2240000000	weak learning
0.2240000000	uncertainty information
0.2240000000	information gained
0.2240000000	linear dependencies
0.2240000000	learning compact
0.2240000000	hypothesis test
0.2240000000	hypothesis based
0.2240000000	learning aims
0.2240000000	linear operators
0.2240000000	manual feature
0.2240000000	programming techniques
0.2240000000	learning requires
0.2240000000	crafted feature
0.2240000000	continuous representation
0.2240000000	joint space
0.2240000000	completion method
0.2240000000	completion problem
0.2240000000	completion methods
0.2240000000	completion task
0.2240000000	small clusters
0.2240000000	cost based
0.2240000000	cost model
0.2240000000	cost efficient
0.2240000000	extraction task
0.2240000000	small loss
0.2240000000	small image
0.2240000000	simple data
0.2240000000	popular tools
0.2240000000	simple gradient
0.2240000000	popular image
0.2240000000	interaction networks
0.2240000000	learning benchmark
0.2240000000	learning formulation
0.2240000000	programming problem
0.2240000000	generic feature
0.2240000000	active search
0.2240000000	driven model
0.2240000000	driven methods
0.2240000000	driven models
0.2240000000	driven framework
0.2240000000	automated algorithm
0.2240000000	components analysis
0.2240000000	query based
0.2240000000	automated decision
0.2240000000	learning challenge
0.2240000000	learning long
0.2240000000	learning continuous
0.2240000000	learning experiments
0.2240000000	learning tool
0.2240000000	learning general
0.2240000000	learning researchers
0.2240000000	learning schemes
0.2240000000	learning efficiency
0.2240000000	programming problems
0.2240000000	joint image
0.2240000000	query results
0.2240000000	sampled data
0.2240000000	minimization approach
0.2240000000	minimization algorithm
0.2240000000	learning outcomes
0.2240000000	learning training
0.2240000000	term detection
0.2240000000	iteration algorithm
0.2240000000	proposed feature
0.2240000000	automated text
0.2240000000	structure aware
0.2240000000	information divergence
0.2240000000	optimization performance
0.2240000000	optimization program
0.2240000000	optimization theory
0.2240000000	optimization models
0.2240000000	optimization tool
0.2240000000	channel images
0.2240000000	scenario based
0.2240000000	descent approach
0.2240000000	descent based
0.2240000000	descent optimization
0.2240000000	typically trained
0.2240000000	feature subspace
0.2240000000	hidden structure
0.2240000000	small networks
0.2240000000	capture high
0.2240000000	yields results
0.2240000000	automated feature
0.2240000000	feature types
0.2240000000	automated method
0.2240000000	popular benchmark
0.2240000000	continuous domain
0.2240000000	continuous variable
0.2240000000	automated approach
0.2240000000	continuous space
0.2240000000	continuous latent
0.2240000000	learning platform
0.2240000000	local optimization
0.2240000000	local spatial
0.2240000000	generic image
0.2240000000	linear logic
0.2240000000	linear embeddings
0.2240000000	linear computational
0.2240000000	continuous features
0.2240000000	linear kernel
0.2240000000	linear svm
0.2240000000	linear mapping
0.2240000000	linear dynamic
0.2240000000	linear subspace
0.2240000000	linear kernels
0.2240000000	information compression
0.2240000000	linear constraint
0.2240000000	linear case
0.2240000000	binary values
0.2240000000	linear dynamics
0.2240000000	linear features
0.2240000000	linear structure
0.2240000000	linear nonlinear
0.2240000000	linear rate
0.2240000000	linear methods
0.2240000000	benchmark methods
0.2240000000	extraction algorithm
0.2240000000	perception tasks
0.2240000000	series based
0.2240000000	attributes e.g
0.2240000000	automated image
0.2240000000	proposed adaptive
0.2240000000	information search
0.2240000000	benchmark image
0.2240000000	information captured
0.2240000000	information entropy
0.2240000000	information extracted
0.2240000000	information transfer
0.2240000000	information integration
0.2240000000	information source
0.2240000000	information i.e
0.2240000000	information collected
0.2240000000	proposed loss
0.2240000000	information theoretical
0.2240000000	information theoretically
0.2240000000	information e.g
0.2240000000	information stored
0.2240000000	aspect based
0.2240000000	information needed
0.2240000000	memory efficiency
0.2240000000	benchmark task
0.2240000000	optimization criteria
0.2240000000	rich language
0.2240000000	proposed architecture
0.2240000000	optimization strategies
0.2240000000	local linear
0.2240000000	optimization objective
0.2240000000	association problem
0.2240000000	series modeling
0.2240000000	learning behavior
0.2240000000	proof technique
0.2240000000	learning control
0.2240000000	context representation
0.2240000000	learning hierarchical
0.2240000000	linear units
0.2240000000	score based
0.2240000000	proposed filter
0.2240000000	linear independence
0.2240000000	minimization method
0.2240000000	sets demonstrate
0.2240000000	linear chain
0.2240000000	proposed test
0.2240000000	continuous functions
0.2240000000	benchmark test
0.2240000000	benchmark video
0.2240000000	benchmark results
0.2240000000	benchmark models
0.2240000000	driven feature
0.2240000000	generic framework
0.2240000000	explanation based
0.2240000000	causal bayesian
0.2240000000	causal information
0.2240000000	causal knowledge
0.2240000000	learning accuracy
0.2240000000	embedding quality
0.2240000000	developed recently
0.2240000000	manual analysis
0.2240000000	linear response
0.2240000000	linear space
0.2240000000	methods include
0.2240000000	methods improve
0.2240000000	linear relationship
0.2240000000	methods exploit
0.2240000000	methods proposed
0.2240000000	methods generally
0.2240000000	feature values
0.2240000000	linear embedding
0.2240000000	joint object
0.2240000000	methods designed
0.2240000000	context modeling
0.2240000000	achieve improved
0.2240000000	achieve results
0.2240000000	achieve performance
0.2240000000	methods address
0.2240000000	developed methods
0.2240000000	benchmark database
0.2240000000	embedding vector
0.2240000000	achieve optimal
0.2240000000	rich information
0.2240000000	learning bounds
0.2240000000	linear reconstruction
0.2240000000	rich structure
0.2240000000	benchmark domains
0.2240000000	rich features
0.2240000000	local structures
0.2240000000	rich representations
0.2240000000	approximate algorithms
0.2240000000	interaction terms
0.2240000000	structure i.e
0.2240000000	sensitive classification
0.2240000000	hidden process
0.2240000000	open challenge
0.2240000000	feature weights
0.2240000000	term based
0.2240000000	developing methods
0.2240000000	local solutions
0.2240000000	achieve fast
0.2240000000	term temporal
0.2240000000	simple techniques
0.2240000000	long video
0.2240000000	programming model
0.2240000000	generic method
0.2240000000	learning i.e
0.2240000000	achieve promising
0.2240000000	linear regret
0.2240000000	linear nature
0.2240000000	driven approach
0.2240000000	learning literature
0.2240000000	standard variational
0.2240000000	binary patterns
0.2240000000	structure estimation
0.2240000000	linear representations
0.2240000000	standard models
0.2240000000	structure underlying
0.2240000000	standard learning
0.2240000000	standard method
0.2240000000	standard model
0.2240000000	standard clustering
0.2240000000	proposed pipeline
0.2240000000	standard reinforcement
0.2240000000	information sharing
0.2240000000	standard convex
0.2240000000	retrieval method
0.2240000000	standard stochastic
0.2240000000	standard evaluation
0.2240000000	standard neural
0.2240000000	programming algorithms
0.2240000000	proposed hybrid
0.2240000000	achieve lower
0.2240000000	learning rl
0.2240000000	methods learn
0.2240000000	proposed approaches
0.2240000000	memory neural
0.2240000000	sets showing
0.2240000000	observation space
0.2240000000	optimization perspective
0.2240000000	observation matrix
0.2240000000	observation models
0.2240000000	standard linear
0.2240000000	simple mechanism
0.2240000000	benchmark face
0.2240000000	color features
0.2240000000	forest algorithm
0.2240000000	local gradient
0.2240000000	memory constraints
0.2240000000	popular approach
0.2240000000	term prediction
0.2240000000	optimization task
0.2240000000	programming method
0.2240000000	simple tasks
0.2240000000	standard image
0.2240000000	learning speed
0.2240000000	standard assumptions
0.2240000000	simple algorithms
0.2240000000	term extraction
0.2240000000	programming framework
0.2240000000	standard tools
0.2240000000	learning theoretic
0.2240000000	long videos
0.2240000000	simple method
0.2240000000	standard bayesian
0.2240000000	standard test
0.2240000000	learning classifiers
0.2240000000	binary matrix
0.2240000000	popular benchmarks
0.2240000000	learning ability
0.2240000000	proposed techniques
0.2240000000	standard metrics
0.2240000000	discourse analysis
0.2240000000	learning topic
0.2240000000	learning optimal
0.2240000000	standard gaussian
0.2240000000	methods employ
0.2240000000	retrieval rate
0.2240000000	reliable detection
0.2240000000	local stability
0.2240000000	context tree
0.2240000000	methods provide
0.2240000000	capture local
0.2240000000	methods exist
0.2240000000	capture complex
0.2240000000	standard supervised
0.2240000000	simple recurrent
0.2240000000	sufficient information
0.2240000000	learning visual
0.2240000000	learning low
0.2240000000	learning statistics
0.2240000000	learning robust
0.2240000000	generic features
0.2240000000	procedure called
0.2240000000	standard single
0.2240000000	learning policies
0.2240000000	attractive features
0.2240000000	learning capabilities
0.2240000000	proposed sparse
0.2240000000	small set
0.2240000000	learning networks
0.2240000000	learning representation
0.2240000000	learning scenario
0.2240000000	learning classification
0.2240000000	learning relies
0.2240000000	joint attention
0.2240000000	sensitive data
0.2240000000	learning curve
0.2240000000	hidden information
0.2240000000	differentiable neural
0.2240000000	extraction approach
0.2240000000	simple technique
0.2240000000	standard text
0.2240000000	generating natural
0.2240000000	embedding layer
0.2240000000	structure recovery
0.2240000000	retrieval algorithm
0.2240000000	rich data
0.2240000000	proposed extension
0.2240000000	rich feature
0.2240000000	rich class
0.2240000000	joint loss
0.2240000000	encoding methods
0.2240000000	information geometric
0.2240000000	rich semantic
0.2240000000	rich visual
0.2240000000	optimization criterion
0.2240000000	learning set
0.2240000000	simple random
0.2240000000	article presents
0.2240000000	memory complexity
0.2240000000	memory size
0.2240000000	achieve robustness
0.2240000000	popular word
0.2240000000	information maximization
0.2240000000	simple approach
0.2240000000	including linear
0.2240000000	proposed procedure
0.2240000000	term goal
0.2240000000	simple rule
0.2240000000	minimization based
0.2240000000	term predictions
0.2240000000	embedding based
0.2240000000	geometry based
0.2240000000	observation data
0.2240000000	joint embedding
0.2240000000	learning binary
0.2240000000	embedding algorithm
0.2240000000	feature sharing
0.2240000000	learning joint
0.2240000000	joint model
0.2240000000	hidden semi
0.2240000000	learning benchmarks
0.2240000000	causal analysis
0.2240000000	learning classifier
0.2240000000	joint representation
0.2240000000	standard algorithms
0.2240000000	optimization procedures
0.2240000000	proposed attention
0.2240000000	proposed models
0.2240000000	capture data
0.2240000000	feature point
0.2240000000	proposed metrics
0.2240000000	learning signal
0.2240000000	learning convolutional
0.2240000000	constrained clustering
0.2240000000	methods e.g
0.2240000000	including high
0.2240000000	learning efficient
0.2240000000	proposed regularization
0.2240000000	rich source
0.2240000000	proposed architectures
0.2240000000	proposed cnn
0.2240000000	local appearance
0.2240000000	embedding techniques
0.2240000000	sufficient data
0.2240000000	learning frameworks
0.2240000000	linear prediction
0.2240000000	learning research
0.2240000000	simple search
0.2240000000	proposed unsupervised
0.2240000000	minimization algorithms
0.2240000000	joint probabilistic
0.2240000000	observation model
0.2240000000	small variance
0.2240000000	popular research
0.2240000000	standard convolutional
0.2240000000	learning results
0.2240000000	driven applications
0.2240000000	extraction techniques
0.2240000000	popular data
0.2240000000	capture semantic
0.2240000000	small sizes
0.2240000000	learning feature
0.2240000000	learning domain
0.2240000000	learning concept
0.2240000000	local geometric
0.2240000000	sets including
0.2240000000	simple geometric
0.2240000000	proposed descriptor
0.2240000000	learning class
0.2240000000	information science
0.2240000000	memory cost
0.2240000000	proposed tracker
0.2240000000	proposed hierarchical
0.2240000000	including multi
0.2240000000	proposed dynamic
0.2240000000	feature dimensionality
0.2240000000	optimization formulation
0.2240000000	proposed solutions
0.2240000000	proposed fuzzy
0.2240000000	local means
0.2240000000	standard multi
0.2240000000	embedding framework
0.2240000000	standard deep
0.2240000000	proposed probabilistic
0.2240000000	proposed kernel
0.2240000000	small dataset
0.2240000000	extraction based
0.2240000000	learning mechanisms
0.2240000000	popular technique
0.2240000000	simple framework
0.2240000000	programming based
0.2240000000	proposed active
0.2240000000	learning pipelines
0.2240000000	learning invariant
0.2240000000	simple optimization
0.2240000000	simple methods
0.2240000000	extraction technique
0.2240000000	popular algorithms
0.2240000000	embedding network
0.2240000000	proposed learning
0.2240000000	simple fast
0.2240000000	driven method
0.2240000000	small groups
0.2240000000	standard approach
0.2240000000	information rich
0.2240000000	proposed deep
0.2240000000	attention aware
0.2240000000	generating process
0.2240000000	feature hierarchy
0.2240000000	learning stage
0.2240000000	learning semantic
0.2240000000	context i.e
0.2240000000	proposed mechanism
0.2240000000	joint sparse
0.2240000000	proposed networks
0.2240000000	learning community
0.2240000000	proposed network
0.2240000000	learning parameters
0.2240000000	feature reduction
0.2240000000	proposed representation
0.2240000000	proposed semantic
0.2240000000	including human
0.2240000000	simple probabilistic
0.2240000000	popular deep
0.2240000000	embedding features
0.2240000000	proposed sampling
0.2240000000	embedding approaches
0.2240000000	play important
0.2240000000	standard statistical
0.2240000000	standard gradient
0.2240000000	query images
0.2240000000	optimization heuristics
0.2240000000	descent algorithms
0.2240000000	proposed criterion
0.2240000000	feature distributions
0.2240000000	simple structure
0.2240000000	methods aim
0.2240000000	attention neural
0.2240000000	simple heuristics
0.2240000000	linear operator
0.2240000000	proposed scheme
0.2240000000	simple case
0.2240000000	local details
0.2240000000	proposed formulation
0.2240000000	learning user
0.2240000000	pattern set
0.2240000000	yields improved
0.2240000000	methods treat
0.2240000000	proposed solution
0.2240000000	driven approaches
0.2240000000	popular method
0.2240000000	learning interpretable
0.2240000000	learning dynamics
0.2240000000	learning methodology
0.2240000000	learning processes
0.2240000000	learning remains
0.2240000000	learning temporal
0.2240000000	learning tools
0.2240000000	learning structure
0.2240000000	learning context
0.2240000000	learning concepts
0.2240000000	manual evaluation
0.2240000000	learning solutions
0.2240000000	developed algorithm
0.2240000000	learning module
0.2240000000	learning technologies
0.2240000000	learning paradigms
0.2240000000	learning procedures
0.2240000000	simple model
0.2240000000	learning directly
0.2240000000	learning makes
0.2240000000	including mnist
0.2240000000	programming methods
0.2240000000	simple features
0.2240000000	feature matrix
0.2240000000	learning scenarios
0.2240000000	sensitive applications
0.2240000000	local convergence
0.2240000000	standard optimization
0.2240000000	learning component
0.2240000000	extraction tasks
0.2240000000	information access
0.2240000000	learning technology
0.2240000000	optimization step
0.2240000000	standard training
0.2240000000	memory architecture
0.2240000000	simple task
0.2240000000	feature integration
0.2240000000	generating object
0.2240000000	binary class
0.2240000000	minimization framework
0.2240000000	pattern detection
0.2240000000	standard techniques
0.2240000000	standard practice
0.2240000000	learning including
0.2240000000	learning large
0.2240000000	feature discovery
0.2240000000	retrieval models
0.2240000000	simple architecture
0.2240000000	binary labels
0.2240000000	small constant
0.2240000000	learning enables
0.2240000000	simple models
0.2240000000	learning ml
0.2240000000	embedding technique
0.2240000000	classes including
0.2240000000	simple rules
0.2240000000	binary image
0.2240000000	constraint optimization
0.2240000000	memory architectures
0.2240000000	binary relations
0.2240000000	learning domains
0.2240000000	simple clustering
0.2240000000	methods significantly
0.2240000000	simple neural
0.2240000000	information based
0.2240000000	simple feature
0.2240000000	simple heuristic
0.2240000000	feature dimensions
0.2240000000	simple local
0.2240000000	simple iterative
0.2240000000	simple proof
0.2240000000	simple implementation
0.2240000000	learning structured
0.2240000000	methods developed
0.2240000000	standard cnn
0.2240000000	generic algorithm
0.2240000000	simple greedy
0.2240000000	simple statistical
0.2240000000	databases demonstrate
0.2240000000	retrieval algorithms
0.2240000000	standard genetic
0.2240000000	retrieval results
0.2240000000	extraction models
0.2240000000	popular model
0.2240000000	popular techniques
0.2240000000	methods achieve
0.2240000000	embedding approach
0.2240000000	joint multi
0.2240000000	extraction algorithms
0.2240000000	extraction step
0.2240000000	including support
0.2240000000	extraction process
0.2240000000	joint segmentation
0.2240000000	generating function
0.2240000000	speech based
0.2240000000	semantics based
0.2240000000	local interactions
0.2240000000	continuous distributions
0.2240000000	generating images
0.2240000000	generating distribution
0.2240000000	query processing
0.2240000000	feature aggregation
0.2240000000	generating synthetic
0.2240000000	popular models
0.2240000000	hidden variable
0.2240000000	developed deep
0.2240000000	developed method
0.2240000000	automated algorithms
0.2240000000	small learning
0.2240000000	popular algorithm
0.2240000000	feature ranking
0.2240000000	sensitive learning
0.2240000000	simple genetic
0.2240000000	popular framework
0.2240000000	explanation methods
0.2240000000	popular approaches
0.2240000000	linear mixed
0.2240000000	simple deep
0.2240000000	learning datasets
0.2240000000	information propagation
0.2240000000	learning application
0.2240000000	series models
0.2240000000	learning gaussian
0.2240000000	small memory
0.2240000000	standard classification
0.2240000000	small data
0.2240000000	small random
0.2240000000	small region
0.2240000000	small training
0.2240000000	learning called
0.2240000000	extraction framework
0.2240000000	learning practitioners
0.2240000000	approximate local
0.2240000000	small local
0.2240000000	enable real
0.2240000000	learning pipeline
0.2240000000	approximate variational
0.2240000000	learning guarantees
0.2240000000	including neural
0.2240000000	interaction data
0.2240000000	automated translation
0.2240000000	achieve robust
0.2240000000	memory lstm
0.2240000000	methods considered
0.2240000000	generic model
0.2240000000	simple baseline
0.2240000000	simple classification
0.2240000000	long text
0.2240000000	local motion
0.2240000000	achieve accurate
0.2240000000	simple network
0.2240000000	generic approach
0.2240000000	retrieval methods
0.2240000000	retrieval problems
0.2240000000	retrieval datasets
0.2240000000	retrieval problem
0.2240000000	retrieval model
0.2240000000	retrieval framework
0.2240000000	including long
0.2240000000	including classification
0.2240000000	including object
0.2240000000	including machine
0.2240000000	including image
0.2240000000	simple examples
0.2240000000	including face
0.2240000000	including sparse
0.2240000000	methods enable
0.2240000000	methods typically
0.2240000000	methods produce
0.2240000000	reliable results
0.2240000000	local area
0.2240000000	feature subsets
0.2240000000	methods i.e
0.2240000000	statistics based
0.2240000000	local global
0.2240000000	channel features
0.2240000000	binary vector
0.2240000000	feature mapping
0.2240000000	local density
0.2240000000	local data
0.2240000000	solver based
0.2240000000	local manifold
0.2240000000	local computation
0.2240000000	binary search
0.2240000000	yields similar
0.2240000000	hidden patterns
0.2240000000	local geometry
0.2240000000	binary state
0.2240000000	feature generation
0.2240000000	score sampling
0.2240000000	hidden representation
0.2240000000	deeper models
0.2240000000	path based
0.2240000000	path problem
0.2240000000	feature rich
0.2240000000	feature information
0.2240000000	feature functions
0.2240000000	feature transform
0.2240000000	feature distribution
0.2240000000	feature tracking
0.2240000000	feature model
0.2240000000	feature combinations
0.2240000000	feature data
0.2240000000	open research
0.2240000000	open issue
0.2240000000	structure e.g
0.2240000000	binary segmentation
0.2240000000	local surface
0.2240000000	proof techniques
0.2240000000	developed algorithms
0.2240000000	information required
0.2240000000	benchmark problem
0.2240000000	ground based
0.2240000000	feature models
0.2240000000	color based
0.2240000000	classes i.e
0.2240000000	classes e.g
0.2240000000	incremental method
0.2240000000	logistic model
0.2240000000	logistic process
0.2240000000	constraint set
0.2240000000	constraint problems
0.2240000000	earlier results
0.2240000000	earlier methods
0.2240000000	geometry information
0.2240000000	spectrum analysis
0.2240000000	dense semantic
0.2240000000	slower than
0.2240000000	maximal information
0.2240000000	laplacian based
0.2240000000	volumetric data
0.2240000000	bound based
0.2240000000	complex functions
0.2240000000	complex task
0.2240000000	scalable methods
0.2240000000	level face
0.2240000000	automatic feature
0.2240000000	structures e.g
0.2240000000	paper reports
0.2240000000	method involves
0.2240000000	paper presents
0.2240000000	supervision information
0.2240000000	paper proposed
0.2240000000	representation theorem
0.2240000000	communication networks
0.2240000000	propose deep
0.2240000000	history based
0.2240000000	field based
0.2240000000	complex visual
0.2240000000	develop techniques
0.2240000000	representation power
0.2240000000	develop methods
0.2240000000	develop models
0.2240000000	develop algorithms
0.2240000000	studied problem
0.2240000000	partial knowledge
0.2240000000	action representation
0.2240000000	action model
0.2240000000	action datasets
0.2240000000	action based
0.2240000000	alignment methods
0.2240000000	recently researchers
0.2240000000	recently applied
0.2240000000	recently reported
0.2240000000	recently demonstrated
0.2240000000	collaborative deep
0.2240000000	collaborative learning
0.2240000000	study suggests
0.2240000000	art learning
0.2240000000	arbitrary order
0.2240000000	human labeling
0.2240000000	arbitrary data
0.2240000000	arbitrary graph
0.2240000000	arbitrary size
0.2240000000	estimation technique
0.2240000000	low dimension
0.2240000000	general applicability
0.2240000000	state distribution
0.2240000000	general graphs
0.2240000000	global cost
0.2240000000	general solution
0.2240000000	human written
0.2240000000	evaluation experiments
0.2240000000	propose learning
0.2240000000	importance function
0.2240000000	matching networks
0.2240000000	sensing methods
0.2240000000	kernel weights
0.2240000000	multimodal optimization
0.2240000000	reconstruction problems
0.2240000000	decision function
0.2240000000	paper explores
0.2240000000	dominant approach
0.2240000000	arbitrary probability
0.2240000000	paper applies
0.2240000000	method utilizes
0.2240000000	paper develops
0.2240000000	reconstruction method
0.2240000000	sensing problem
0.2240000000	imagenet datasets
0.2240000000	imagenet dataset
0.2240000000	mnist classification
0.2240000000	mnist datasets
0.2240000000	mnist data
0.2240000000	recently convolutional
0.2240000000	generated text
0.2240000000	complexity i.e
0.2240000000	complexity measures
0.2240000000	develop efficient
0.2240000000	complexity reduction
0.2240000000	complexity increases
0.2240000000	effective technique
0.2240000000	learn meaningful
0.2240000000	semantic relationships
0.2240000000	learn deep
0.2240000000	complexity algorithm
0.2240000000	semantic tasks
0.2240000000	learn robust
0.2240000000	semantic categories
0.2240000000	semantic data
0.2240000000	form solutions
0.2240000000	form solution
0.2240000000	auxiliary data
0.2240000000	level semantics
0.2240000000	level human
0.2240000000	level optimization
0.2240000000	variation based
0.2240000000	arbitrary distributions
0.2240000000	matching model
0.2240000000	matching algorithms
0.2240000000	matching techniques
0.2240000000	matching performance
0.2240000000	matching technique
0.2240000000	matching approach
0.2240000000	matching task
0.2240000000	matching based
0.2240000000	matching methods
0.2240000000	action dependent
0.2240000000	cnn structure
0.2240000000	empirically compare
0.2240000000	empirically investigate
0.2240000000	global minimum
0.2240000000	action theory
0.2240000000	discriminator network
0.2240000000	search approach
0.2240000000	connected graph
0.2240000000	connected networks
0.2240000000	connected network
0.2240000000	fully observed
0.2240000000	fully unsupervised
0.2240000000	fully distributed
0.2240000000	fully labeled
0.2240000000	true class
0.2240000000	representation enables
0.2240000000	human designed
0.2240000000	learn task
0.2240000000	stereo image
0.2240000000	semantic resources
0.2240000000	semantic aware
0.2240000000	semantic annotation
0.2240000000	semantic objects
0.2240000000	semantic concept
0.2240000000	semantic level
0.2240000000	semantic interpretation
0.2240000000	semantic levels
0.2240000000	semantic context
0.2240000000	semantic relation
0.2240000000	semantic vector
0.2240000000	semantic gap
0.2240000000	semantic understanding
0.2240000000	semantic classification
0.2240000000	semantic embeddings
0.2240000000	level hierarchy
0.2240000000	semantic relationship
0.2240000000	recently presented
0.2240000000	complexity scales
0.2240000000	decision procedure
0.2240000000	naive approach
0.2240000000	decision systems
0.2240000000	decision level
0.2240000000	decision space
0.2240000000	representation techniques
0.2240000000	complex scene
0.2240000000	automatic processing
0.2240000000	automatic methods
0.2240000000	topic classification
0.2240000000	estimation scheme
0.2240000000	field variational
0.2240000000	architecture designed
0.2240000000	fashion images
0.2240000000	complex optimization
0.2240000000	complex situations
0.2240000000	complex structured
0.2240000000	complex distributions
0.2240000000	complex behavior
0.2240000000	complex event
0.2240000000	complex patterns
0.2240000000	complex problem
0.2240000000	complex domains
0.2240000000	complex process
0.2240000000	complex images
0.2240000000	complex input
0.2240000000	complex neural
0.2240000000	complex learning
0.2240000000	complex natural
0.2240000000	general domain
0.2240000000	complex dynamic
0.2240000000	designed feature
0.2240000000	true data
0.2240000000	human recognition
0.2240000000	effective multi
0.2240000000	effective algorithms
0.2240000000	effective model
0.2240000000	effective exploration
0.2240000000	effective feature
0.2240000000	effective methods
0.2240000000	effective method
0.2240000000	fast multi
0.2240000000	effective learning
0.2240000000	effective representations
0.2240000000	effective means
0.2240000000	representation framework
0.2240000000	propose efficient
0.2240000000	human hand
0.2240000000	subspace based
0.2240000000	general smooth
0.2240000000	state aggregation
0.2240000000	level representation
0.2240000000	motion pattern
0.2240000000	structures based
0.2240000000	motion vector
0.2240000000	method assumes
0.2240000000	low energy
0.2240000000	automatic inference
0.2240000000	human labeled
0.2240000000	low dimensionality
0.2240000000	autoencoder model
0.2240000000	low error
0.2240000000	general principles
0.2240000000	achieves performance
0.2240000000	global image
0.2240000000	shot image
0.2240000000	evaluation measure
0.2240000000	cnn feature
0.2240000000	human evaluations
0.2240000000	outperforming existing
0.2240000000	complex structures
0.2240000000	field algorithm
0.2240000000	complex nonlinear
0.2240000000	architecture combining
0.2240000000	fast motion
0.2240000000	complex features
0.2240000000	complex temporal
0.2240000000	complex model
0.2240000000	fast search
0.2240000000	fast optimization
0.2240000000	fast implementation
0.2240000000	fast robust
0.2240000000	fast gradient
0.2240000000	fast stochastic
0.2240000000	fast accurate
0.2240000000	fast training
0.2240000000	art models
0.2240000000	representation systems
0.2240000000	representation called
0.2240000000	representation methods
0.2240000000	designed features
0.2240000000	competing algorithms
0.2240000000	fully exploiting
0.2240000000	general sum
0.2240000000	state variable
0.2240000000	global approach
0.2240000000	evaluation functions
0.2240000000	global shape
0.2240000000	global energy
0.2240000000	method termed
0.2240000000	global consistency
0.2240000000	general methodology
0.2240000000	evaluation framework
0.2240000000	global linear
0.2240000000	paper discusses
0.2240000000	global matching
0.2240000000	global scale
0.2240000000	global solution
0.2240000000	art approaches
0.2240000000	global level
0.2240000000	global structures
0.2240000000	global state
0.2240000000	global information
0.2240000000	global representation
0.2240000000	global average
0.2240000000	affect recognition
0.2240000000	communication network
0.2240000000	lstm language
0.2240000000	automatic metrics
0.2240000000	representation scheme
0.2240000000	effective features
0.2240000000	study demonstrates
0.2240000000	learn rich
0.2240000000	level reasoning
0.2240000000	representation approach
0.2240000000	scalable algorithm
0.2240000000	complex scenarios
0.2240000000	evaluation methodology
0.2240000000	inverse model
0.2240000000	grammar based
0.2240000000	evaluation procedure
0.2240000000	general bayesian
0.2240000000	general game
0.2240000000	general linear
0.2240000000	general notion
0.2240000000	level annotation
0.2240000000	general ai
0.2240000000	sentiment prediction
0.2240000000	general probabilistic
0.2240000000	level modeling
0.2240000000	level category
0.2240000000	level sets
0.2240000000	perceptual features
0.2240000000	level data
0.2240000000	general stochastic
0.2240000000	complex objects
0.2240000000	learn features
0.2240000000	learn efficiently
0.2240000000	patterns observed
0.2240000000	method applies
0.2240000000	method substantially
0.2240000000	level tasks
0.2240000000	evaluation scheme
0.2240000000	evaluation demonstrates
0.2240000000	global optimal
0.2240000000	method enjoys
0.2240000000	representation languages
0.2240000000	art solvers
0.2240000000	learn effective
0.2240000000	art detectors
0.2240000000	art solutions
0.2240000000	art techniques
0.2240000000	effective image
0.2240000000	estimation approaches
0.2240000000	learn word
0.2240000000	art baselines
0.2240000000	learn complex
0.2240000000	learn embeddings
0.2240000000	architecture search
0.2240000000	fast learning
0.2240000000	estimation process
0.2240000000	batch based
0.2240000000	semantic attribute
0.2240000000	curriculum based
0.2240000000	method computes
0.2240000000	reconstruction process
0.2240000000	complexity theoretic
0.2240000000	level neural
0.2240000000	paper examines
0.2240000000	human learning
0.2240000000	representation spaces
0.2240000000	relevant literature
0.2240000000	sensing applications
0.2240000000	complex human
0.2240000000	field images
0.2240000000	complex events
0.2240000000	general model
0.2240000000	topic space
0.2240000000	representation models
0.2240000000	embedded space
0.2240000000	cnn classifier
0.2240000000	substantial performance
0.2240000000	complex datasets
0.2240000000	study aims
0.2240000000	architecture design
0.2240000000	multimodal approach
0.2240000000	studied problems
0.2240000000	representation model
0.2240000000	human capabilities
0.2240000000	learn data
0.2240000000	effective framework
0.2240000000	architecture named
0.2240000000	art algorithms
0.2240000000	human accuracy
0.2240000000	clustering structure
0.2240000000	paper demonstrates
0.2240000000	automatic text
0.2240000000	level accuracy
0.2240000000	generated content
0.2240000000	level structure
0.2240000000	automata based
0.2240000000	art systems
0.2240000000	representation schemes
0.2240000000	sensing based
0.2240000000	substantial computational
0.2240000000	semantic structures
0.2240000000	distributions including
0.2240000000	decision variable
0.2240000000	complex architectures
0.2240000000	complex environment
0.2240000000	learn temporal
0.2240000000	representation theory
0.2240000000	multimodal learning
0.2240000000	learn discriminative
0.2240000000	human operators
0.2240000000	fast algorithms
0.2240000000	showing significant
0.2240000000	evaluation process
0.2240000000	general convex
0.2240000000	of readmission
0.2240000000	estimation errors
0.2240000000	art performances
0.2240000000	automatic image
0.2240000000	fast online
0.2240000000	connected convolutional
0.2240000000	art face
0.2240000000	cnn layers
0.2240000000	complex decision
0.2240000000	complex structure
0.2240000000	relevant objects
0.2240000000	propose multi
0.2240000000	motion analysis
0.2240000000	art supervised
0.2240000000	cnn design
0.2240000000	state markov
0.2240000000	field approach
0.2240000000	human ability
0.2240000000	method employs
0.2240000000	level knowledge
0.2240000000	level similarity
0.2240000000	general image
0.2240000000	representation language
0.2240000000	learn local
0.2240000000	interpolation method
0.2240000000	method i.e
0.2240000000	reconstruction techniques
0.2240000000	human computation
0.2240000000	human input
0.2240000000	fast image
0.2240000000	method finds
0.2240000000	multimodal information
0.2240000000	semantic class
0.2240000000	learn multiple
0.2240000000	architecture trained
0.2240000000	cnn learning
0.2240000000	cnn framework
0.2240000000	paper compares
0.2240000000	achieves results
0.2240000000	autoencoder based
0.2240000000	removal algorithm
0.2240000000	representation method
0.2240000000	human subject
0.2240000000	architecture outperforms
0.2240000000	stereo images
0.2240000000	patterns e.g
0.2240000000	decision functions
0.2240000000	level based
0.2240000000	art training
0.2240000000	relevant data
0.2240000000	study presents
0.2240000000	general learning
0.2240000000	low frame
0.2240000000	level control
0.2240000000	representation space
0.2240000000	method includes
0.2240000000	general problems
0.2240000000	low accuracy
0.2240000000	general form
0.2240000000	architecture achieves
0.2240000000	complexity bound
0.2240000000	effective training
0.2240000000	true model
0.2240000000	facilitate learning
0.2240000000	state machines
0.2240000000	cnn structures
0.2240000000	general concept
0.2240000000	search process
0.2240000000	state sequence
0.2240000000	state based
0.2240000000	skeleton data
0.2240000000	learn semantic
0.2240000000	state vector
0.2240000000	art classifiers
0.2240000000	general models
0.2240000000	relevant image
0.2240000000	paper investigates
0.2240000000	semantic consistency
0.2240000000	general methods
0.2240000000	method requires
0.2240000000	relevant words
0.2240000000	coding algorithm
0.2240000000	human detection
0.2240000000	art cnn
0.2240000000	stereo methods
0.2240000000	method demonstrates
0.2240000000	develop theoretical
0.2240000000	global maximum
0.2240000000	learn visual
0.2240000000	relevant images
0.2240000000	art neural
0.2240000000	state machine
0.2240000000	fast method
0.2240000000	level class
0.2240000000	achieves similar
0.2240000000	propose methods
0.2240000000	global similarity
0.2240000000	estimation techniques
0.2240000000	method capable
0.2240000000	human reasoning
0.2240000000	art networks
0.2240000000	global search
0.2240000000	art accuracy
0.2240000000	estimation approach
0.2240000000	human agents
0.2240000000	decision point
0.2240000000	general technique
0.2240000000	propose simple
0.2240000000	human post
0.2240000000	complex relationships
0.2240000000	achieving performance
0.2240000000	method identifies
0.2240000000	action languages
0.2240000000	paper takes
0.2240000000	search difficulty
0.2240000000	motion recognition
0.2240000000	method outperformed
0.2240000000	effective algorithm
0.2240000000	true distribution
0.2240000000	state dynamics
0.2240000000	procedures based
0.2240000000	method combines
0.2240000000	paper analyzes
0.2240000000	motion vectors
0.2240000000	general tool
0.2240000000	semantic embedding
0.2240000000	of time
0.2240000000	method enables
0.2240000000	coding framework
0.2240000000	relevant content
0.2240000000	method generalizes
0.2240000000	study proposes
0.2240000000	learn latent
0.2240000000	human efforts
0.2240000000	multimodal image
0.2240000000	human behaviour
0.2240000000	general data
0.2240000000	representation classification
0.2240000000	human identification
0.2240000000	reconstruction based
0.2240000000	spectral data
0.2240000000	art image
0.2240000000	complex dynamics
0.2240000000	relevant research
0.2240000000	paper includes
0.2240000000	human user
0.2240000000	method exploits
0.2240000000	art works
0.2240000000	level recurrent
0.2240000000	semantic feature
0.2240000000	batch training
0.2240000000	alignment problem
0.2240000000	complex concepts
0.2240000000	cloud based
0.2240000000	study online
0.2240000000	search operators
0.2240000000	global feature
0.2240000000	estimation algorithms
0.2240000000	decision based
0.2240000000	method runs
0.2240000000	svd based
0.2240000000	fast iterative
0.2240000000	learn representations
0.2240000000	multimodal features
0.2240000000	relevant target
0.2240000000	complex scenes
0.2240000000	method incorporates
0.2240000000	complex multi
0.2240000000	architecture enables
0.2240000000	automatic approach
0.2240000000	fully bayesian
0.2240000000	cnn outperforms
0.2240000000	effective strategy
0.2240000000	clustering accuracy
0.2240000000	paper studies
0.2240000000	human understanding
0.2240000000	level context
0.2240000000	alignment method
0.2240000000	coding based
0.2240000000	global local
0.2240000000	learn feature
0.2240000000	ant based
0.2240000000	signature based
0.2240000000	empirically study
0.2240000000	state representations
0.2240000000	fast speed
0.2240000000	method detects
0.2240000000	fully automatically
0.2240000000	competing models
0.2240000000	method learns
0.2240000000	literature including
0.2240000000	method converges
0.2240000000	structural complexity
0.2240000000	u i
0.2240000000	independence structure
0.2240000000	method generates
0.2240000000	estimation tasks
0.2240000000	achieving similar
0.2240000000	achieving high
0.2240000000	automatic translation
0.2240000000	shape based
0.2240000000	general method
0.2240000000	general architecture
0.2240000000	general theory
0.2240000000	general problem
0.2240000000	general public
0.2240000000	general approach
0.2240000000	general multi
0.2240000000	general conditions
0.2240000000	general set
0.2240000000	general knowledge
0.2240000000	general case
0.2240000000	shot classification
0.2240000000	general classification
0.2240000000	general low
0.2240000000	general properties
0.2240000000	general position
0.2240000000	level deep
0.2240000000	global structure
0.2240000000	general analysis
0.2240000000	action sets
0.2240000000	general type
0.2240000000	propose algorithms
0.2240000000	low sample
0.2240000000	evaluation algorithm
0.2240000000	effective manner
0.2240000000	paper defines
0.2240000000	automatic target
0.2240000000	automatic model
0.2240000000	automatic systems
0.2240000000	automatic learning
0.2240000000	fast linear
0.2240000000	automatic data
0.2240000000	low probability
0.2240000000	low degree
0.2240000000	effective models
0.2240000000	low regret
0.2240000000	low density
0.2240000000	evaluation datasets
0.2240000000	method developed
0.2240000000	paper describes
0.2240000000	evaluation tasks
0.2240000000	evaluation set
0.2240000000	paper addresses
0.2240000000	evaluation criterion
0.2240000000	semantic scene
0.2240000000	metrics including
0.2240000000	method extends
0.2240000000	action values
0.2240000000	human interpretable
0.2240000000	human studies
0.2240000000	human cognitive
0.2240000000	human error
0.2240000000	human interpretation
0.2240000000	human life
0.2240000000	embedded applications
0.2240000000	method considers
0.2240000000	complex probabilistic
0.2240000000	method achieved
0.2240000000	learn models
0.2240000000	estimation framework
0.2240000000	effective information
0.2240000000	effective search
0.2240000000	estimation performance
0.2240000000	paper shows
0.2240000000	complex image
0.2240000000	achieves optimal
0.2240000000	relevant applications
0.2240000000	global objective
0.2240000000	coding methods
0.2240000000	coding problem
0.2240000000	coding algorithms
0.2240000000	clustering procedure
0.2240000000	clustering classification
0.2240000000	clustering tasks
0.2240000000	complex domain
0.2240000000	clustering task
0.2240000000	multimodal feature
0.2240000000	spectral image
0.2240000000	paper introduces
0.2240000000	paper offers
0.2240000000	paper aims
0.2240000000	paper extends
0.2240000000	paper considers
0.2240000000	complex network
0.2240000000	paper suggests
0.2240000000	paper makes
0.2240000000	paper based
0.2240000000	direction method
0.2240000000	paper concerns
0.2240000000	field inference
0.2240000000	field data
0.2240000000	search tree
0.2240000000	method increases
0.2240000000	method effectively
0.2240000000	method automatically
0.2240000000	method aims
0.2240000000	method combining
0.2240000000	method proposed
0.2240000000	method introduces
0.2240000000	method designed
0.2240000000	method reduces
0.2240000000	method makes
0.2240000000	method greatly
0.2240000000	method offers
0.2240000000	fast rate
0.2240000000	method scales
0.2240000000	method directly
0.2240000000	method jointly
0.2240000000	method builds
0.2240000000	method successfully
0.2240000000	method exhibits
0.2240000000	method leverages
0.2240000000	complex feature
0.2240000000	field model
0.2240000000	method estimates
0.2240000000	paper explains
0.2240000000	fast processing
0.2240000000	field approximation
0.2240000000	splitting algorithm
0.2240000000	matching problems
0.2240000000	search mechanism
0.2240000000	search technique
0.2240000000	search procedures
0.2240000000	search problem
0.2240000000	search tasks
0.2240000000	search heuristic
0.2240000000	search systems
0.2240000000	level classifier
0.2240000000	level fusion
0.2240000000	spectral domain
0.2240000000	form expression
0.2240000000	level concepts
0.2240000000	effective approaches
0.2240000000	effective solution
0.2240000000	spectral features
0.2240000000	level scene
0.2240000000	effective classification
0.2240000000	effective mechanism
0.2240000000	graphical structure
0.2240000000	graphical modeling
0.2240000000	argument based
0.2240000000	scalable method
0.2240000000	scalable learning
0.2240000000	scalable gaussian
0.2240000000	scalable approach
0.2240000000	scalable kernel
0.2240000000	scalable algorithms
0.2240000000	scalable inference
0.2240000000	scalable multi
0.2240000000	scalable bayesian
0.2240000000	scalable optimization
0.2240000000	convergence result
0.2240000000	subspace model
0.2240000000	stability analysis
0.2240000000	convergence theory
0.2240000000	convergence property
0.2240000000	convergence performance
0.2240000000	estimation task
0.2240000000	estimation procedures
0.2240000000	estimation algorithm
0.2240000000	estimation results
0.2240000000	edge information
0.2240000000	bound algorithm
0.2240000000	kernel approach
0.2240000000	kernel spectral
0.2240000000	unconstrained images
0.2240000000	spectral method
0.2240000000	batch processing
0.2240000000	batch algorithms
0.2240000000	structural models
0.2240000000	augmentation approach
0.2240000000	augmentation method
0.2240000000	augmentation methods
0.2240000000	graphs based
0.2240000000	shape features
0.2240000000	shape parameters
0.2240000000	shape models
0.2240000000	shape prior
0.2240000000	shape estimation
0.2240000000	concentration results
0.2240000000	spectral properties
0.2240000000	ga based
0.2240000000	spectral algorithms
0.2240000000	connection structure
0.2240000000	redundant information
0.2240000000	structural learning
0.2240000000	structural model
0.2240000000	structural analysis
0.2240000000	sensor based
0.2240000000	reconstruction performance
0.2240000000	reconstruction tasks
0.2240000000	reconstruction framework
0.2240000000	reconstruction problem
0.2240000000	reconstruction results
0.2240000000	occurrence information
0.2240000000	occurrence networks
0.2240000000	infinite data
0.2240000000	multispectral data
0.2240000000	diffusion process
0.2240000000	diffusion based
0.2240000000	satisfaction problem
0.2240000000	private data
0.2240000000	infinite state
0.2240000000	algebraic approach
0.2240000000	interpolation methods
0.2240000000	cloud data
0.2240000000	pyramid network
0.2240000000	automata networks
0.2240000000	histogram based
0.2240000000	transition function
0.2240000000	specific tasks
0.2240000000	personal information
0.2240000000	population level
0.2240000000	population distribution
0.2240000000	evolutionary approaches
0.2240000000	valued function
0.2240000000	based networks
0.2240000000	sample sets
0.2240000000	proximal algorithms
0.2240000000	data sharing
0.2240000000	consistency loss
0.2240000000	class svm
0.2240000000	squares problem
0.2240000000	generation systems
0.2240000000	train classifiers
0.2240000000	cover classification
0.2240000000	camera image
0.2240000000	handle multi
0.2240000000	handle complex
0.2240000000	data exploration
0.2240000000	data summarization
0.2240000000	compact convolutional
0.2240000000	data representations
0.2240000000	data base
0.2240000000	smaller network
0.2240000000	smaller datasets
0.2240000000	distance matrix
0.2240000000	distance correlation
0.2240000000	consistency based
0.2240000000	consistency constraints
0.2240000000	projection algorithm
0.2240000000	based distance
0.2240000000	randomized algorithm
0.2240000000	preprocessing methods
0.2240000000	data resources
0.2240000000	data modeling
0.2240000000	squares problems
0.2240000000	input information
0.2240000000	specific prior
0.2240000000	compression techniques
0.2240000000	solve complex
0.2240000000	morphological information
0.2240000000	recent improvements
0.2240000000	morphological features
0.2240000000	class activation
0.2240000000	associative learning
0.2240000000	decoder network
0.2240000000	comparable classification
0.2240000000	parsing process
0.2240000000	parsing results
0.2240000000	parsing accuracy
0.2240000000	summarization systems
0.2240000000	summarization task
0.2240000000	distance functions
0.2240000000	smaller size
0.2240000000	input sentences
0.2240000000	decoder structure
0.2240000000	decoder model
0.2240000000	decoder neural
0.2240000000	decoder networks
0.2240000000	efficiently detect
0.2240000000	efficiently trained
0.2240000000	efficiently search
0.2240000000	efficiently learning
0.2240000000	efficiently compute
0.2240000000	decoder models
0.2240000000	significant variations
0.2240000000	data recorded
0.2240000000	automatically learned
0.2240000000	conventional statistical
0.2240000000	conventional method
0.2240000000	unique solution
0.2240000000	conventional model
0.2240000000	conventional deep
0.2240000000	conventional supervised
0.2240000000	robust multi
0.2240000000	evolutionary strategy
0.2240000000	evolutionary process
0.2240000000	compression based
0.2240000000	acquired images
0.2240000000	based policy
0.2240000000	transition model
0.2240000000	based approximation
0.2240000000	qualitative analysis
0.2240000000	handle multiple
0.2240000000	handle data
0.2240000000	data sizes
0.2240000000	robust ranking
0.2240000000	alternative view
0.2240000000	robust object
0.2240000000	alternative solution
0.2240000000	alternative models
0.2240000000	instance learning
0.2240000000	class variations
0.2240000000	robust image
0.2240000000	train large
0.2240000000	extract image
0.2240000000	efficiently generate
0.2240000000	efficiently explore
0.2240000000	efficiently perform
0.2240000000	efficiently handle
0.2240000000	efficiently train
0.2240000000	data partition
0.2240000000	data management
0.2240000000	data handling
0.2240000000	valued data
0.2240000000	significant margin
0.2240000000	data exchange
0.2240000000	acquired knowledge
0.2240000000	specific conditions
0.2240000000	data generating
0.2240000000	store information
0.2240000000	data centers
0.2240000000	based hashing
0.2240000000	marker based
0.2240000000	robust representation
0.2240000000	pose graph
0.2240000000	class wise
0.2240000000	robust performance
0.2240000000	class models
0.2240000000	class segmentation
0.2240000000	application independent
0.2240000000	class classifiers
0.2240000000	class information
0.2240000000	class image
0.2240000000	class attribute
0.2240000000	class structure
0.2240000000	class problem
0.2240000000	pairwise terms
0.2240000000	systematic approach
0.2240000000	systematic analysis
0.2240000000	summarization techniques
0.2240000000	explore deep
0.2240000000	sample analysis
0.2240000000	conditional variational
0.2240000000	conditional computation
0.2240000000	conditional neural
0.2240000000	efficiently learned
0.2240000000	real videos
0.2240000000	distinct tasks
0.2240000000	data extraction
0.2240000000	sample classification
0.2240000000	sample error
0.2240000000	sample generation
0.2240000000	sample based
0.2240000000	sample images
0.2240000000	sample quality
0.2240000000	conventional image
0.2240000000	pose prediction
0.2240000000	pose detection
0.2240000000	extract knowledge
0.2240000000	specific objects
0.2240000000	specific linguistic
0.2240000000	specific languages
0.2240000000	specific image
0.2240000000	specific type
0.2240000000	specific parameters
0.2240000000	specific constraints
0.2240000000	specific parameter
0.2240000000	specific problems
0.2240000000	specific methods
0.2240000000	specific properties
0.2240000000	specific learning
0.2240000000	specific case
0.2240000000	specific class
0.2240000000	specific layers
0.2240000000	specific domain
0.2240000000	specific text
0.2240000000	specific category
0.2240000000	specific data
0.2240000000	specific feature
0.2240000000	specific algorithms
0.2240000000	specific knowledge
0.2240000000	specific language
0.2240000000	specific challenges
0.2240000000	specific characteristics
0.2240000000	specific problem
0.2240000000	specific words
0.2240000000	specific word
0.2240000000	specific task
0.2240000000	specific information
0.2240000000	specific models
0.2240000000	specific semantics
0.2240000000	specific domains
0.2240000000	specific applications
0.2240000000	specific application
0.2240000000	specific object
0.2240000000	specific model
0.2240000000	valued functions
0.2240000000	world scenes
0.2240000000	presented showing
0.2240000000	intensity based
0.2240000000	step forward
0.2240000000	conventional classifiers
0.2240000000	step training
0.2240000000	based simulation
0.2240000000	data similarity
0.2240000000	specific corpus
0.2240000000	sample performance
0.2240000000	based sentiment
0.2240000000	regularization problems
0.2240000000	regularization framework
0.2240000000	regularization strategies
0.2240000000	segment based
0.2240000000	based rendering
0.2240000000	randomized experiments
0.2240000000	generation framework
0.2240000000	class distributions
0.2240000000	real scenarios
0.2240000000	based retrieval
0.2240000000	data called
0.2240000000	significant benefits
0.2240000000	data collections
0.2240000000	world settings
0.2240000000	world states
0.2240000000	data fit
0.2240000000	robust results
0.2240000000	data confirm
0.2240000000	data information
0.2240000000	data represented
0.2240000000	data reveals
0.2240000000	data captured
0.2240000000	data required
0.2240000000	data shows
0.2240000000	data independent
0.2240000000	data applications
0.2240000000	based pruning
0.2240000000	based decision
0.2240000000	based region
0.2240000000	based attention
0.2240000000	based pattern
0.2240000000	based objective
0.2240000000	data compared
0.2240000000	based nmt
0.2240000000	data patterns
0.2240000000	train test
0.2240000000	variable order
0.2240000000	train models
0.2240000000	data model
0.2240000000	variable model
0.2240000000	based heuristic
0.2240000000	data records
0.2240000000	compact set
0.2240000000	unique properties
0.2240000000	data increases
0.2240000000	robust inference
0.2240000000	data typically
0.2240000000	latent spaces
0.2240000000	real vector
0.2240000000	summarization tasks
0.2240000000	based natural
0.2240000000	class dependent
0.2240000000	recent paper
0.2240000000	data parallelism
0.2240000000	class variance
0.2240000000	based ranking
0.2240000000	data oriented
0.2240000000	data adaptive
0.2240000000	smoothing algorithm
0.2240000000	real examples
0.2240000000	based vision
0.2240000000	conditional likelihood
0.2240000000	data involving
0.2240000000	robust algorithms
0.2240000000	data volume
0.2240000000	evolutionary approach
0.2240000000	based application
0.2240000000	data learning
0.2240000000	based reconstruction
0.2240000000	data annotation
0.2240000000	data elements
0.2240000000	class classifier
0.2240000000	based spatial
0.2240000000	based interactive
0.2240000000	real line
0.2240000000	based qa
0.2240000000	parameter spaces
0.2240000000	based software
0.2240000000	based solver
0.2240000000	based detectors
0.2240000000	based metric
0.2240000000	based virtual
0.2240000000	based applications
0.2240000000	based optimal
0.2240000000	reconstruct images
0.2240000000	based view
0.2240000000	based prediction
0.2240000000	based structure
0.2240000000	based mechanism
0.2240000000	based unsupervised
0.2240000000	based cross
0.2240000000	based probabilistic
0.2240000000	based kernel
0.2240000000	based authentication
0.2240000000	based dictionary
0.2240000000	based strategy
0.2240000000	data sampling
0.2240000000	based exploration
0.2240000000	based services
0.2240000000	based spectral
0.2240000000	based ensemble
0.2240000000	approaches fail
0.2240000000	based regularization
0.2240000000	based information
0.2240000000	data transfer
0.2240000000	based adaptive
0.2240000000	based detector
0.2240000000	robust model
0.2240000000	world examples
0.2240000000	data type
0.2240000000	based task
0.2240000000	data sequences
0.2240000000	data dimensionality
0.2240000000	based fast
0.2240000000	based generative
0.2240000000	based baseline
0.2240000000	rl problems
0.2240000000	data access
0.2240000000	based motion
0.2240000000	coherent framework
0.2240000000	based hybrid
0.2240000000	based convolutional
0.2240000000	based state
0.2240000000	data rich
0.2240000000	established methods
0.2240000000	based online
0.2240000000	approaches perform
0.2240000000	approaches typically
0.2240000000	approaches suffer
0.2240000000	approaches provide
0.2240000000	based diagnosis
0.2240000000	based nonlinear
0.2240000000	input dependent
0.2240000000	based controller
0.2240000000	based heuristics
0.2240000000	input size
0.2240000000	automatically obtained
0.2240000000	automatically construct
0.2240000000	recent algorithms
0.2240000000	significant features
0.2240000000	recent successful
0.2240000000	recent techniques
0.2240000000	recent findings
0.2240000000	recent method
0.2240000000	recent approach
0.2240000000	easily trained
0.2240000000	recent applications
0.2240000000	recent neural
0.2240000000	robust high
0.2240000000	data era
0.2240000000	significant potential
0.2240000000	summarization methods
0.2240000000	generation algorithms
0.2240000000	data items
0.2240000000	generation methods
0.2240000000	generation algorithm
0.2240000000	challenge set
0.2240000000	generation task
0.2240000000	robust approach
0.2240000000	based semantic
0.2240000000	data vectors
0.2240000000	based detection
0.2240000000	generation model
0.2240000000	latent functions
0.2240000000	robust online
0.2240000000	based modeling
0.2240000000	latent information
0.2240000000	based tracker
0.2240000000	robust learning
0.2240000000	data dimensions
0.2240000000	input signal
0.2240000000	significant practical
0.2240000000	based embedding
0.2240000000	based artificial
0.2240000000	data models
0.2240000000	based training
0.2240000000	data release
0.2240000000	based formulation
0.2240000000	recent times
0.2240000000	based implementation
0.2240000000	conventional multi
0.2240000000	based modelling
0.2240000000	data distributed
0.2240000000	world multi
0.2240000000	based strategies
0.2240000000	approaches e.g
0.2240000000	based selection
0.2240000000	based facial
0.2240000000	recent study
0.2240000000	based bayesian
0.2240000000	generation based
0.2240000000	functions including
0.2240000000	step procedure
0.2240000000	largely based
0.2240000000	data directly
0.2240000000	based analysis
0.2240000000	based component
0.2240000000	robust methods
0.2240000000	based sentence
0.2240000000	response theory
0.2240000000	based fusion
0.2240000000	pipeline based
0.2240000000	based representations
0.2240000000	input vectors
0.2240000000	automatically estimate
0.2240000000	generation technique
0.2240000000	automatically learning
0.2240000000	based compression
0.2240000000	objects based
0.2240000000	based low
0.2240000000	class prediction
0.2240000000	based planner
0.2240000000	response model
0.2240000000	data dimension
0.2240000000	conventional approach
0.2240000000	based fully
0.2240000000	generation tasks
0.2240000000	based network
0.2240000000	easily obtained
0.2240000000	maintaining high
0.2240000000	data sample
0.2240000000	data provided
0.2240000000	compact feature
0.2240000000	based grammar
0.2240000000	based optimisation
0.2240000000	application domain
0.2240000000	based distributed
0.2240000000	words models
0.2240000000	preprocessing method
0.2240000000	data illustrate
0.2240000000	based dynamic
0.2240000000	based person
0.2240000000	train cnns
0.2240000000	data scenarios
0.2240000000	based mobile
0.2240000000	objects e.g
0.2240000000	data fitting
0.2240000000	generation method
0.2240000000	based iterative
0.2240000000	sample points
0.2240000000	based generalization
0.2240000000	data matrices
0.2240000000	based languages
0.2240000000	recent past
0.2240000000	conventional algorithms
0.2240000000	sample mining
0.2240000000	parameter setting
0.2240000000	data automatically
0.2240000000	based camera
0.2240000000	latent tree
0.2240000000	real environments
0.2240000000	functions i.e
0.2240000000	generation techniques
0.2240000000	significant advantage
0.2240000000	response function
0.2240000000	data generation
0.2240000000	data needed
0.2240000000	conventional neural
0.2240000000	significant problem
0.2240000000	data intensive
0.2240000000	real training
0.2240000000	robust scalable
0.2240000000	data modalities
0.2240000000	truth images
0.2240000000	based smt
0.2240000000	recent cnn
0.2240000000	latent group
0.2240000000	directly estimate
0.2240000000	class posterior
0.2240000000	decoder framework
0.2240000000	sample space
0.2240000000	input signals
0.2240000000	based discriminative
0.2240000000	world case
0.2240000000	based performance
0.2240000000	based inference
0.2240000000	based weight
0.2240000000	recognize human
0.2240000000	train neural
0.2240000000	latent low
0.2240000000	data synthesis
0.2240000000	adaptation methods
0.2240000000	world models
0.2240000000	real hyperspectral
0.2240000000	approaches require
0.2240000000	solve constrained
0.2240000000	data objects
0.2240000000	based recurrent
0.2240000000	data problems
0.2240000000	step algorithm
0.2240000000	based decoding
0.2240000000	latent state
0.2240000000	noise detection
0.2240000000	train set
0.2240000000	based domain
0.2240000000	based structured
0.2240000000	robust estimator
0.2240000000	based similarity
0.2240000000	world application
0.2240000000	train deep
0.2240000000	adaptation problem
0.2240000000	application examples
0.2240000000	summarization approaches
0.2240000000	world conditions
0.2240000000	data acquired
0.2240000000	data sequence
0.2240000000	based approximations
0.2240000000	input words
0.2240000000	regularization functions
0.2240000000	world scenario
0.2240000000	based statistical
0.2240000000	presented approach
0.2240000000	application scenario
0.2240000000	data retrieval
0.2240000000	evolutionary systems
0.2240000000	significant speed
0.2240000000	based architectures
0.2240000000	robust deep
0.2240000000	based trackers
0.2240000000	real objects
0.2240000000	robust algorithm
0.2240000000	based dialogue
0.2240000000	solve large
0.2240000000	based filtering
0.2240000000	data characteristics
0.2240000000	real users
0.2240000000	parsing performance
0.2240000000	input sequences
0.2240000000	directly learns
0.2240000000	utility based
0.2240000000	world graphs
0.2240000000	world assumption
0.2240000000	input video
0.2240000000	recent result
0.2240000000	based grammars
0.2240000000	input sample
0.2240000000	world events
0.2240000000	world social
0.2240000000	latent image
0.2240000000	based memory
0.2240000000	compressed image
0.2240000000	based metrics
0.2240000000	data i.e
0.2240000000	specific context
0.2240000000	robust statistics
0.2240000000	based parallel
0.2240000000	data showing
0.2240000000	world domain
0.2240000000	world benchmark
0.2240000000	application fields
0.2240000000	based tool
0.2240000000	world face
0.2240000000	world instances
0.2240000000	data reconstruction
0.2240000000	data including
0.2240000000	response prediction
0.2240000000	based hierarchical
0.2240000000	specific assumptions
0.2240000000	data requires
0.2240000000	based problems
0.2240000000	based global
0.2240000000	sample selection
0.2240000000	based prior
0.2240000000	based human
0.2240000000	based medical
0.2240000000	based semantics
0.2240000000	universal learning
0.2240000000	based variational
0.2240000000	data remains
0.2240000000	based video
0.2240000000	data rate
0.2240000000	challenge data
0.2240000000	world networks
0.2240000000	based joint
0.2240000000	uncertain data
0.2240000000	based solution
0.2240000000	regularization problem
0.2240000000	measure called
0.2240000000	intensity function
0.2240000000	camera network
0.2240000000	real dataset
0.2240000000	real networks
0.2240000000	significant research
0.2240000000	real robot
0.2240000000	data pairs
0.2240000000	unified representation
0.2240000000	real application
0.2240000000	real human
0.2240000000	world network
0.2240000000	real experiments
0.2240000000	real problems
0.2240000000	real scenes
0.2240000000	regularization approach
0.2240000000	real case
0.2240000000	real physical
0.2240000000	real scene
0.2240000000	significant computational
0.2240000000	world situations
0.2240000000	data flow
0.2240000000	data format
0.2240000000	real video
0.2240000000	class probability
0.2240000000	robust solution
0.2240000000	world tasks
0.2240000000	world domains
0.2240000000	world setting
0.2240000000	world environments
0.2240000000	world scenarios
0.2240000000	world clinical
0.2240000000	world problem
0.2240000000	world objects
0.2240000000	world text
0.2240000000	based local
0.2240000000	world systems
0.2240000000	world environment
0.2240000000	world large
0.2240000000	world experiments
0.2240000000	application dependent
0.2240000000	world video
0.2240000000	input vector
0.2240000000	train networks
0.2240000000	functions e.g
0.2240000000	parameter size
0.2240000000	pose tracking
0.2240000000	parameter model
0.2240000000	parameter based
0.2240000000	parameter vector
0.2240000000	input points
0.2240000000	based setting
0.2240000000	pose based
0.2240000000	pose significant
0.2240000000	truth data
0.2240000000	generation problem
0.2240000000	unique features
0.2240000000	based supervised
0.2240000000	class problems
0.2240000000	parsing models
0.2240000000	noise conditions
0.2240000000	robust features
0.2240000000	noise distribution
0.2240000000	noise rate
0.2240000000	based automatic
0.2240000000	based user
0.2240000000	robust bayesian
0.2240000000	robust classification
0.2240000000	class relationships
0.2240000000	parsing task
0.2240000000	robust tracking
0.2240000000	noise robustness
0.2240000000	based genetic
0.2240000000	data e.g
0.2240000000	unified architecture
0.2240000000	unified model
0.2240000000	unified approach
0.2240000000	unified network
0.2240000000	input matrix
0.2240000000	distance estimation
0.2240000000	significant loss
0.2240000000	significant accuracy
0.2240000000	lasso problems
0.2240000000	acquired data
0.2240000000	directly model
0.2240000000	significant influence
0.2240000000	alternative model
0.2240000000	words i.e
0.2240000000	instance specific
0.2240000000	significant difference
0.2240000000	data reduction
0.2240000000	compact model
0.2240000000	input feature
0.2240000000	proper learning
0.2240000000	evolutionary methods
0.2240000000	latent embedding
0.2240000000	adaptation algorithms
0.2240000000	adaptation techniques
0.2240000000	adaptation technique
0.2240000000	regularization method
0.2240000000	extract temporal
0.2240000000	directly learning
0.2240000000	smaller model
0.2240000000	latent vector
0.2240000000	words model
0.2240000000	automatically identifying
0.2240000000	input sentence
0.2240000000	input distributions
0.2240000000	input dimension
0.2240000000	input distribution
0.2240000000	input word
0.2240000000	input patterns
0.2240000000	input samples
0.2240000000	input frames
0.2240000000	input multiple
0.2240000000	input dataset
0.2240000000	input spaces
0.2240000000	additionally propose
0.2240000000	parsing algorithm
0.2240000000	input noise
0.2240000000	input face
0.2240000000	automatically determine
0.2240000000	latent topic
0.2240000000	functions called
0.2240000000	identity information
0.2240000000	rl framework
0.2240000000	consistency results
0.2240000000	benchmarks i.e
0.2240000000	explore methods
0.2240000000	directly predicting
0.2240000000	directly observed
0.2240000000	directly learn
0.2240000000	directly predict
0.2240000000	directly apply
0.2240000000	directly applying
0.2240000000	significant information
0.2240000000	syntactic structure
0.2240000000	syntactic analysis
0.2240000000	double deep
0.2240000000	partition model
0.2240000000	inherent structure
0.2240000000	lattice based
0.2240000000	projection methods
0.2240000000	projection method
0.2240000000	projection images
0.2240000000	camera images
0.2240000000	camera view
0.2240000000	camera based
0.2240000000	camera systems
0.2240000000	camera data
0.2240000000	contour based
0.2240000000	contour model
0.2240000000	wild images
0.2240000000	tv based
0.2240000000	proximal methods
0.2240000000	proximal algorithm
0.2240000000	personal data
0.2240000000	computational constraints
0.2240000000	computational resource
0.2240000000	combining local
0.2240000000	target set
0.2240000000	making tasks
0.2240000000	independent approach
0.2240000000	independent components
0.2240000000	spatiotemporal data
0.2240000000	core problem
0.2240000000	features describing
0.2240000000	adversarial framework
0.2240000000	provide feedback
0.2240000000	total cost
0.2240000000	approach learns
0.2240000000	approach consistently
0.2240000000	consistent estimation
0.2240000000	consistent algorithms
0.2240000000	consistent learning
0.2240000000	consistent improvement
0.2240000000	consistent results
0.2240000000	location information
0.2240000000	tensor model
0.2240000000	images exhibit
0.2240000000	tensor network
0.2240000000	constant number
0.2240000000	density network
0.2240000000	independent samples
0.2240000000	density models
0.2240000000	density based
0.2240000000	graph optimization
0.2240000000	poor accuracy
0.2240000000	weighted loss
0.2240000000	weighted combination
0.2240000000	experiments demonstrating
0.2240000000	pursuit algorithm
0.2240000000	large models
0.2240000000	token based
0.2240000000	provide meaningful
0.2240000000	approach aims
0.2240000000	provide rich
0.2240000000	suggested method
0.2240000000	experiments demonstrated
0.2240000000	selection operator
0.2240000000	selection criterion
0.2240000000	selection technique
0.2240000000	selection strategies
0.2240000000	fusion problem
0.2240000000	fusion process
0.2240000000	log data
0.2240000000	training source
0.2240000000	task related
0.2240000000	filtering algorithms
0.2240000000	current knowledge
0.2240000000	identification process
0.2240000000	identification systems
0.2240000000	filtering based
0.2240000000	training objectives
0.2240000000	similarity matching
0.2240000000	providing accurate
0.2240000000	scientific data
0.2240000000	physical properties
0.2240000000	experiments carried
0.2240000000	component based
0.2240000000	static image
0.2240000000	choice model
0.2240000000	combined approach
0.2240000000	selection model
0.2240000000	consistent performance
0.2240000000	tasks require
0.2240000000	current image
0.2240000000	filtering method
0.2240000000	filtering techniques
0.2240000000	training framework
0.2240000000	dynamic stochastic
0.2240000000	graph estimation
0.2240000000	dynamic behavior
0.2240000000	dynamic multi
0.2240000000	dynamic clustering
0.2240000000	dynamic problems
0.2240000000	features extraction
0.2240000000	dynamic knowledge
0.2240000000	dynamic features
0.2240000000	dynamic network
0.2240000000	dynamic graph
0.2240000000	dynamic memory
0.2240000000	computational social
0.2240000000	large variety
0.2240000000	dynamic nature
0.2240000000	large variance
0.2240000000	requires knowledge
0.2240000000	large database
0.2240000000	tensor methods
0.2240000000	requires solving
0.2240000000	requires large
0.2240000000	requires high
0.2240000000	optimal low
0.2240000000	large images
0.2240000000	optimal parameter
0.2240000000	type theory
0.2240000000	dataset named
0.2240000000	training procedures
0.2240000000	mathematical theory
0.2240000000	key component
0.2240000000	mathematical properties
0.2240000000	key problems
0.2240000000	related approaches
0.2240000000	dynamic environment
0.2240000000	requires significant
0.2240000000	applied successfully
0.2240000000	density functions
0.2240000000	related information
0.2240000000	approach named
0.2240000000	likelihood functions
0.2240000000	dynamic decision
0.2240000000	classify objects
0.2240000000	core problems
0.2240000000	target values
0.2240000000	filtering methods
0.2240000000	computational advantage
0.2240000000	reference point
0.2240000000	translation problem
0.2240000000	navigation tasks
0.2240000000	filtering algorithm
0.2240000000	power loss
0.2240000000	training efficiency
0.2240000000	power control
0.2240000000	filtering framework
0.2240000000	provide upper
0.2240000000	demonstrated state
0.2240000000	dataset showing
0.2240000000	dynamic models
0.2240000000	theoretic framework
0.2240000000	extremely effective
0.2240000000	training techniques
0.2240000000	studies demonstrate
0.2240000000	studies suggest
0.2240000000	theoretic techniques
0.2240000000	approach identifies
0.2240000000	dynamic information
0.2240000000	making problems
0.2240000000	making problem
0.2240000000	making process
0.2240000000	making processes
0.2240000000	numerical method
0.2240000000	quality samples
0.2240000000	provide preliminary
0.2240000000	fusion algorithm
0.2240000000	character set
0.2240000000	approach effectively
0.2240000000	character image
0.2240000000	character error
0.2240000000	key information
0.2240000000	approach combining
0.2240000000	adversarial environments
0.2240000000	adversarial multi
0.2240000000	adversarial robustness
0.2240000000	adversarial settings
0.2240000000	adversarial setting
0.2240000000	values obtained
0.2240000000	incorporate multiple
0.2240000000	engineering problems
0.2240000000	provide detailed
0.2240000000	provide conditions
0.2240000000	task achieving
0.2240000000	filtering process
0.2240000000	navigation systems
0.2240000000	computationally simple
0.2240000000	provide complementary
0.2240000000	large multi
0.2240000000	combining deep
0.2240000000	interpretable results
0.2240000000	provide improved
0.2240000000	provide important
0.2240000000	provide effective
0.2240000000	provide convergence
0.2240000000	provide bounds
0.2240000000	provide results
0.2240000000	provide reliable
0.2240000000	provide powerful
0.2240000000	provide numerical
0.2240000000	provide performance
0.2240000000	provide insight
0.2240000000	provide accurate
0.2240000000	provide superior
0.2240000000	provide guarantees
0.2240000000	provide information
0.2240000000	provide significant
0.2240000000	provide experiments
0.2240000000	provide explicit
0.2240000000	provide support
0.2240000000	provide quantitative
0.2240000000	theoretic properties
0.2240000000	cognitive process
0.2240000000	aggregation methods
0.2240000000	straightforward approach
0.2240000000	stable performance
0.2240000000	quality scores
0.2240000000	quality solutions
0.2240000000	large appearance
0.2240000000	key advantages
0.2240000000	space i.e
0.2240000000	space exploration
0.2240000000	space size
0.2240000000	space e.g
0.2240000000	space models
0.2240000000	space dimension
0.2240000000	patient information
0.2240000000	space requirements
0.2240000000	space structure
0.2240000000	space representations
0.2240000000	representing complex
0.2240000000	space model
0.2240000000	space approach
0.2240000000	target languages
0.2240000000	target recognition
0.2240000000	target tasks
0.2240000000	target accuracy
0.2240000000	target specific
0.2240000000	target images
0.2240000000	target dataset
0.2240000000	target model
0.2240000000	target labels
0.2240000000	target variable
0.2240000000	key issues
0.2240000000	quality measure
0.2240000000	key point
0.2240000000	target states
0.2240000000	key building
0.2240000000	key concepts
0.2240000000	key result
0.2240000000	key steps
0.2240000000	key issue
0.2240000000	key role
0.2240000000	engineering approach
0.2240000000	space analysis
0.2240000000	engineering design
0.2240000000	engineering applications
0.2240000000	location based
0.2240000000	external data
0.2240000000	dataset i.e
0.2240000000	optimal expected
0.2240000000	provide efficient
0.2240000000	graph size
0.2240000000	graph analysis
0.2240000000	graph representing
0.2240000000	graph nodes
0.2240000000	graph embeddings
0.2240000000	large collection
0.2240000000	computational method
0.2240000000	space efficiency
0.2240000000	provide robust
0.2240000000	computational problems
0.2240000000	computational imaging
0.2240000000	computational advantages
0.2240000000	computational perspective
0.2240000000	computational challenge
0.2240000000	computational challenges
0.2240000000	computational graph
0.2240000000	incorporate information
0.2240000000	computational systems
0.2240000000	identification rate
0.2240000000	exact algorithm
0.2240000000	computational study
0.2240000000	multi point
0.2240000000	task deep
0.2240000000	multi parameter
0.2240000000	multi unit
0.2240000000	multi classification
0.2240000000	multi linear
0.2240000000	large feature
0.2240000000	exact algorithms
0.2240000000	multi model
0.2240000000	large matrices
0.2240000000	quality criteria
0.2240000000	multi path
0.2240000000	task including
0.2240000000	quality training
0.2240000000	key observation
0.2240000000	multi gpu
0.2240000000	key factors
0.2240000000	derived features
0.2240000000	likelihood objective
0.2240000000	task dependent
0.2240000000	navigation problem
0.2240000000	task relevant
0.2240000000	experiments including
0.2240000000	cognitive model
0.2240000000	computational problem
0.2240000000	margin framework
0.2240000000	approximation problem
0.2240000000	approximation method
0.2240000000	gps data
0.2240000000	approach outperformed
0.2240000000	large memory
0.2240000000	optimal estimation
0.2240000000	rnn language
0.2240000000	similarity model
0.2240000000	images directly
0.2240000000	training linear
0.2240000000	current models
0.2240000000	training performance
0.2240000000	fusion approach
0.2240000000	training mechanism
0.2240000000	training models
0.2240000000	training accuracy
0.2240000000	training parameters
0.2240000000	training schemes
0.2240000000	training criterion
0.2240000000	target distributions
0.2240000000	training sequences
0.2240000000	optimal dynamic
0.2240000000	training speed
0.2240000000	training rnns
0.2240000000	training loss
0.2240000000	training signal
0.2240000000	training step
0.2240000000	key questions
0.2240000000	related images
0.2240000000	approach generalizes
0.2240000000	training multiple
0.2240000000	square problem
0.2240000000	target network
0.2240000000	target classification
0.2240000000	adversarial input
0.2240000000	demonstrate performance
0.2240000000	baselines including
0.2240000000	approximation techniques
0.2240000000	fusion network
0.2240000000	features obtained
0.2240000000	large benchmark
0.2240000000	tasks demonstrating
0.2240000000	exact sampling
0.2240000000	images produced
0.2240000000	multi phase
0.2240000000	images extracted
0.2240000000	large labeled
0.2240000000	demonstrate superior
0.2240000000	current practice
0.2240000000	large document
0.2240000000	approximation accuracy
0.2240000000	likelihood approach
0.2240000000	location estimation
0.2240000000	topological analysis
0.2240000000	approach addresses
0.2240000000	quality results
0.2240000000	key question
0.2240000000	description framework
0.2240000000	approximation factor
0.2240000000	provide algorithms
0.2240000000	external world
0.2240000000	related questions
0.2240000000	training cnns
0.2240000000	related task
0.2240000000	space theory
0.2240000000	large dimensional
0.2240000000	current systems
0.2240000000	key concept
0.2240000000	space representation
0.2240000000	margin classification
0.2240000000	training strategies
0.2240000000	filtering approach
0.2240000000	making predictions
0.2240000000	key feature
0.2240000000	enables training
0.2240000000	poor results
0.2240000000	dataset designed
0.2240000000	large pose
0.2240000000	experiments showing
0.2240000000	large public
0.2240000000	type classification
0.2240000000	exact methods
0.2240000000	cognitive task
0.2240000000	sparsity prior
0.2240000000	training model
0.2240000000	optimal finite
0.2240000000	experiments involving
0.2240000000	related fields
0.2240000000	multi graph
0.2240000000	training points
0.2240000000	classify images
0.2240000000	share information
0.2240000000	approach applies
0.2240000000	large corpus
0.2240000000	multi category
0.2240000000	scientific knowledge
0.2240000000	tasks i.e
0.2240000000	images videos
0.2240000000	physical models
0.2240000000	large batch
0.2240000000	features automatically
0.2240000000	approach extends
0.2240000000	graph regularized
0.2240000000	relations e.g
0.2240000000	features computed
0.2240000000	experiments verify
0.2240000000	construction method
0.2240000000	approach demonstrates
0.2240000000	optimal convergence
0.2240000000	selection problems
0.2240000000	computational modeling
0.2240000000	current techniques
0.2240000000	task demonstrate
0.2240000000	numerical studies
0.2240000000	features outperform
0.2240000000	aggregation method
0.2240000000	approach reduces
0.2240000000	curvature based
0.2240000000	combined model
0.2240000000	task training
0.2240000000	tool called
0.2240000000	training approach
0.2240000000	large model
0.2240000000	graph generation
0.2240000000	trainable deep
0.2240000000	growing algorithm
0.2240000000	enables fast
0.2240000000	features i.e
0.2240000000	approach requires
0.2240000000	meaning representation
0.2240000000	independent random
0.2240000000	computational benefits
0.2240000000	approach utilizes
0.2240000000	type data
0.2240000000	target function
0.2240000000	numerical scheme
0.2240000000	multi shot
0.2240000000	similarity estimation
0.2240000000	training signals
0.2240000000	large area
0.2240000000	key problem
0.2240000000	dataset composed
0.2240000000	large learning
0.2240000000	features learnt
0.2240000000	multi region
0.2240000000	computational results
0.2240000000	multi oriented
0.2240000000	related areas
0.2240000000	related concepts
0.2240000000	related issues
0.2240000000	approach directly
0.2240000000	quality object
0.2240000000	current study
0.2240000000	features e.g
0.2240000000	dataset augmentation
0.2240000000	dataset size
0.2240000000	similarity matrices
0.2240000000	sparsity problem
0.2240000000	dataset achieving
0.2240000000	task feature
0.2240000000	related words
0.2240000000	dataset shows
0.2240000000	scores obtained
0.2240000000	fusion technique
0.2240000000	training stage
0.2240000000	exact solution
0.2240000000	quality features
0.2240000000	type algorithms
0.2240000000	dataset includes
0.2240000000	selection techniques
0.2240000000	training distribution
0.2240000000	optimal classification
0.2240000000	provide fast
0.2240000000	quality prediction
0.2240000000	training labels
0.2240000000	current understanding
0.2240000000	considerable performance
0.2240000000	training corpora
0.2240000000	key advantage
0.2240000000	approach leverages
0.2240000000	related research
0.2240000000	related problem
0.2240000000	current model
0.2240000000	ensemble based
0.2240000000	images including
0.2240000000	images requires
0.2240000000	large sparse
0.2240000000	likelihood estimation
0.2240000000	approach finds
0.2240000000	tasks simultaneously
0.2240000000	images remains
0.2240000000	static analysis
0.2240000000	content words
0.2240000000	training database
0.2240000000	fusion framework
0.2240000000	multi user
0.2240000000	dataset including
0.2240000000	computational tools
0.2240000000	optimal action
0.2240000000	training large
0.2240000000	images classification
0.2240000000	optimal subset
0.2240000000	weighted sampling
0.2240000000	related models
0.2240000000	enables learning
0.2240000000	images called
0.2240000000	selection consistency
0.2240000000	images i.e
0.2240000000	sparsity patterns
0.2240000000	large systems
0.2240000000	current solution
0.2240000000	selection algorithms
0.2240000000	mathematical modeling
0.2240000000	large convolutional
0.2240000000	current algorithms
0.2240000000	similarity computation
0.2240000000	current frame
0.2240000000	content selection
0.2240000000	tasks include
0.2240000000	training testing
0.2240000000	likelihood method
0.2240000000	ensemble approach
0.2240000000	approximation problems
0.2240000000	current paper
0.2240000000	optimal bayesian
0.2240000000	current solutions
0.2240000000	current literature
0.2240000000	dynamic data
0.2240000000	numerical study
0.2240000000	large input
0.2240000000	numerical performance
0.2240000000	stable training
0.2240000000	current version
0.2240000000	optimal strategies
0.2240000000	optimal rate
0.2240000000	similarity tasks
0.2240000000	backpropagation learning
0.2240000000	large video
0.2240000000	experiments shows
0.2240000000	selection approach
0.2240000000	images showing
0.2240000000	large action
0.2240000000	runtime performance
0.2240000000	tasks demonstrate
0.2240000000	task reinforcement
0.2240000000	current datasets
0.2240000000	task driven
0.2240000000	task requires
0.2240000000	extremely low
0.2240000000	task i.e
0.2240000000	task loss
0.2240000000	images demonstrate
0.2240000000	task execution
0.2240000000	task network
0.2240000000	enables efficient
0.2240000000	task classification
0.2240000000	approach represents
0.2240000000	likelihood based
0.2240000000	likelihood training
0.2240000000	likelihood framework
0.2240000000	likelihood model
0.2240000000	likelihood estimate
0.2240000000	position paper
0.2240000000	optimal decision
0.2240000000	features required
0.2240000000	experiments illustrate
0.2240000000	experiments comparing
0.2240000000	external information
0.2240000000	demonstrate improved
0.2240000000	demonstrate experimentally
0.2240000000	demonstrate competitive
0.2240000000	demonstrate promising
0.2240000000	finite size
0.2240000000	topological information
0.2240000000	sparsity level
0.2240000000	sparsity constraints
0.2240000000	sparsity structure
0.2240000000	type algorithm
0.2240000000	weighted graph
0.2240000000	tasks requiring
0.2240000000	optimal data
0.2240000000	independent data
0.2240000000	optimal values
0.2240000000	quality models
0.2240000000	quality improvement
0.2240000000	selection approaches
0.2240000000	range imaging
0.2240000000	numerical solution
0.2240000000	weighted linear
0.2240000000	optimal choice
0.2240000000	large head
0.2240000000	large space
0.2240000000	computational issues
0.2240000000	representing knowledge
0.2240000000	theoretic models
0.2240000000	content adaptive
0.2240000000	experiments provide
0.2240000000	interpretable model
0.2240000000	interpretable features
0.2240000000	combining multiple
0.2240000000	approach helps
0.2240000000	risk analysis
0.2240000000	similarity distance
0.2240000000	demonstrate improvements
0.2240000000	similarity task
0.2240000000	images e.g
0.2240000000	multi component
0.2240000000	optimal trade
0.2240000000	finite data
0.2240000000	space efficient
0.2240000000	enables users
0.2240000000	numerical values
0.2240000000	numerical features
0.2240000000	numerical analysis
0.2240000000	numerical data
0.2240000000	fusion approaches
0.2240000000	task e.g
0.2240000000	current learning
0.2240000000	task independent
0.2240000000	position information
0.2240000000	mathematical structure
0.2240000000	ensemble framework
0.2240000000	current object
0.2240000000	selection task
0.2240000000	optimal approximation
0.2240000000	selection framework
0.2240000000	content features
0.2240000000	weighted model
0.2240000000	key property
0.2240000000	approach employs
0.2240000000	approach avoids
0.2240000000	approach captures
0.2240000000	approach makes
0.2240000000	approach proposed
0.2240000000	approach generates
0.2240000000	approach presented
0.2240000000	approach enables
0.2240000000	approach achieved
0.2240000000	approach scales
0.2240000000	physical world
0.2240000000	large family
0.2240000000	identification algorithms
0.2240000000	key challenges
0.2240000000	scientific method
0.2240000000	computational techniques
0.2240000000	space embedding
0.2240000000	optimal learning
0.2240000000	optimal parameters
0.2240000000	large dynamic
0.2240000000	leading methods
0.2240000000	trainable neural
0.2240000000	provide additional
0.2240000000	introduced recently
0.2240000000	log probability
0.2240000000	component models
0.2240000000	provide lower
0.2240000000	computational geometry
0.2240000000	training technique
0.2240000000	optimal weights
0.2240000000	large domains
0.2240000000	optimal results
0.2240000000	optimal model
0.2240000000	optimal behavior
0.2240000000	optimal actions
0.2240000000	optimal representation
0.2240000000	optimal alignment
0.2240000000	optimal feature
0.2240000000	optimal path
0.2240000000	optimal linear
0.2240000000	optimal error
0.2240000000	optimal statistical
0.2240000000	optimal cost
0.2240000000	approach involves
0.2240000000	optimal sampling
0.2240000000	optimal matching
0.2240000000	approach offers
0.2240000000	physical model
0.2240000000	extremely small
0.2240000000	space embeddings
0.2240000000	large dataset
0.2240000000	large complex
0.2240000000	large unlabeled
0.2240000000	large population
0.2240000000	large synthetic
0.2240000000	large variability
0.2240000000	large kernel
0.2240000000	evolving networks
0.2240000000	imagery data
0.2240000000	concept class
0.2240000000	concept space
0.2240000000	projected data
0.2240000000	approximation theory
0.2240000000	approximation quality
0.2240000000	approximation results
0.2240000000	massive scale
0.2240000000	computationally difficult
0.2240000000	extremely sparse
0.2240000000	extremely important
0.2240000000	extremely simple
0.2240000000	estimating parameters
0.2240000000	greedy methods
0.2240000000	greedy search
0.2240000000	huge number
0.2240000000	huge datasets
0.2240000000	huge data
0.2240000000	pixel information
0.2240000000	pixel image
0.2240000000	pixel space
0.2240000000	pixel data
0.2240000000	grid based
0.2240000000	uniform random
0.2240000000	meta analysis
0.2240000000	meta algorithm
0.2240000000	meta level
0.2240000000	meta model
0.2240000000	finite markov
0.2240000000	finite domains
0.2240000000	finite domain
0.2240000000	navigation task
0.2240000000	nonconvex problem
0.2240000000	nonconvex problems
0.2240000000	smooth function
0.2240000000	runtime analysis
0.2240000000	dynamical model
0.2240000000	maximization algorithm
0.2240000000	residual convolutional
0.2240000000	acceleration data
0.2240000000	uniform distribution
0.2240000000	deformation model
0.2240000000	landmark based
0.2240000000	biomedical data
0.2240000000	surveillance data
0.2240000000	surveillance applications
0.2240000000	bilingual data
0.2240000000	enhancement techniques
0.2240000000	enhancement algorithm
0.2240000000	annealing algorithm
0.2240000000	eeg based
0.2240000000	assessment based
0.2240000000	newton methods
0.2240000000	newton algorithm
0.2240000000	mri image
0.2240000000	normal estimation
0.2240000000	voxel based
0.2240000000	cluster data
0.2240000000	cluster structure
0.2240000000	text modeling
0.2240000000	handwritten data
0.2240000000	recommendation problem
0.2240000000	gan framework
0.2240000000	object identification
0.2240000000	abstract features
0.2240000000	random feature
0.2240000000	random data
0.2240000000	increasingly large
0.2240000000	increasingly important
0.2240000000	gaussian markov
0.2240000000	hierarchical features
0.2240000000	relative distance
0.2240000000	survey data
0.2240000000	candidate set
0.2240000000	candidate models
0.2240000000	autoregressive model
0.2240000000	guided image
0.2240000000	guided feature
0.2240000000	networks lstms
0.2240000000	critical problem
0.2240000000	minimal models
0.2240000000	cluster based
0.2240000000	compositional model
0.2240000000	initial state
0.2240000000	brain image
0.2240000000	brain function
0.2240000000	brain network
0.2240000000	computing techniques
0.2240000000	computing models
0.2240000000	computing framework
0.2240000000	neuron network
0.2240000000	neuron models
0.2240000000	word2vec model
0.2240000000	intelligence methods
0.2240000000	perform image
0.2240000000	decoding methods
0.2240000000	extend existing
0.2240000000	extend previous
0.2240000000	computing based
0.2240000000	relation networks
0.2240000000	forward models
0.2240000000	activity data
0.2240000000	neural embedding
0.2240000000	forward networks
0.2240000000	computing optimal
0.2240000000	gan based
0.2240000000	gan model
0.2240000000	community based
0.2240000000	initialization methods
0.2240000000	entity recognition
0.2240000000	relative performance
0.2240000000	internal state
0.2240000000	obtained results
0.2240000000	life datasets
0.2240000000	initial learning
0.2240000000	relation prediction
0.2240000000	classifier accuracy
0.2240000000	classifier design
0.2240000000	classifier models
0.2240000000	classifier trained
0.2240000000	evolution algorithm
0.2240000000	random sequences
0.2240000000	unlike standard
0.2240000000	relation network
0.2240000000	previously defined
0.2240000000	previously trained
0.2240000000	previously considered
0.2240000000	critical task
0.2240000000	recommendation tasks
0.2240000000	critical challenge
0.2240000000	critical applications
0.2240000000	intelligence tasks
0.2240000000	identify potential
0.2240000000	simulated experiments
0.2240000000	factorization framework
0.2240000000	factorization method
0.2240000000	factorization techniques
0.2240000000	factorization approach
0.2240000000	error model
0.2240000000	interactive machine
0.2240000000	basic probability
0.2240000000	minimal model
0.2240000000	relative reduction
0.2240000000	gaussian components
0.2240000000	achieved competitive
0.2240000000	recommendation accuracy
0.2240000000	recommendation task
0.2240000000	outperform standard
0.2240000000	outperform hand
0.2240000000	outperform traditional
0.2240000000	outperform current
0.2240000000	outperform previous
0.2240000000	probabilistic analysis
0.2240000000	and residual
0.2240000000	composition function
0.2240000000	temporal properties
0.2240000000	logic sampling
0.2240000000	temporal correlation
0.2240000000	informative features
0.2240000000	combine multi
0.2240000000	similar methods
0.2240000000	similar languages
0.2240000000	similar appearance
0.2240000000	similar data
0.2240000000	similar structure
0.2240000000	similar words
0.2240000000	similar quality
0.2240000000	similar features
0.2240000000	similar accuracy
0.2240000000	similar tasks
0.2240000000	similar approaches
0.2240000000	similar problems
0.2240000000	brain structure
0.2240000000	boosting based
0.2240000000	previously observed
0.2240000000	synthetic training
0.2240000000	synthetic problems
0.2240000000	synthetic image
0.2240000000	scene datasets
0.2240000000	previously generated
0.2240000000	intelligence technique
0.2240000000	classifier based
0.2240000000	abstract model
0.2240000000	similar properties
0.2240000000	original formulation
0.2240000000	original approach
0.2240000000	original problem
0.2240000000	original text
0.2240000000	life problems
0.2240000000	original algorithm
0.2240000000	identify patterns
0.2240000000	brain segmentation
0.2240000000	initial data
0.2240000000	initial training
0.2240000000	initial experiments
0.2240000000	basic tasks
0.2240000000	initial step
0.2240000000	classification result
0.2240000000	random sample
0.2240000000	random trees
0.2240000000	initial point
0.2240000000	random linear
0.2240000000	random selection
0.2240000000	random access
0.2240000000	random gaussian
0.2240000000	random weights
0.2240000000	boost performance
0.2240000000	bayesian information
0.2240000000	labeled target
0.2240000000	implemented efficiently
0.2240000000	classification performances
0.2240000000	brain data
0.2240000000	basic problem
0.2240000000	intrinsic parameters
0.2240000000	temporal relationships
0.2240000000	compositional approach
0.2240000000	initial model
0.2240000000	diverse data
0.2240000000	random number
0.2240000000	recommendation algorithm
0.2240000000	principled framework
0.2240000000	guided multi
0.2240000000	intrinsic structure
0.2240000000	intrinsic evaluation
0.2240000000	classifier output
0.2240000000	gaussian filter
0.2240000000	classification challenge
0.2240000000	probabilistic information
0.2240000000	bayesian prior
0.2240000000	probabilistic methods
0.2240000000	attribute data
0.2240000000	probabilistic approach
0.2240000000	probabilistic semantics
0.2240000000	intelligence research
0.2240000000	common features
0.2240000000	predictive distribution
0.2240000000	bayesian mixture
0.2240000000	convolutional residual
0.2240000000	neural activation
0.2240000000	bayesian formulation
0.2240000000	neural embeddings
0.2240000000	life data
0.2240000000	perform model
0.2240000000	computing environment
0.2240000000	neural representation
0.2240000000	neural variational
0.2240000000	neural structure
0.2240000000	perform joint
0.2240000000	text e.g
0.2240000000	perform classification
0.2240000000	bayesian probability
0.2240000000	activity classification
0.2240000000	bayesian net
0.2240000000	bayesian theory
0.2240000000	factorization problem
0.2240000000	relaxation approach
0.2240000000	similar semantic
0.2240000000	probabilistic context
0.2240000000	attribute classification
0.2240000000	survey paper
0.2240000000	networks i.e
0.2240000000	achieved high
0.2240000000	perform online
0.2240000000	perform recognition
0.2240000000	perform complex
0.2240000000	video camera
0.2240000000	predictive process
0.2240000000	convolutional lstm
0.2240000000	perform end
0.2240000000	neural approaches
0.2240000000	healthcare data
0.2240000000	convolutional models
0.2240000000	bayesian classifiers
0.2240000000	perform probabilistic
0.2240000000	convolutional autoencoders
0.2240000000	perform inference
0.2240000000	convolutional net
0.2240000000	perform automatic
0.2240000000	neural representations
0.2240000000	recurrent architectures
0.2240000000	minimal set
0.2240000000	perform multiple
0.2240000000	mdp based
0.2240000000	neural population
0.2240000000	classification errors
0.2240000000	common type
0.2240000000	bayesian algorithm
0.2240000000	temporal activity
0.2240000000	perform bayesian
0.2240000000	factorization machine
0.2240000000	random processes
0.2240000000	factorization model
0.2240000000	video representations
0.2240000000	temporal dimension
0.2240000000	temporal sequence
0.2240000000	classification decision
0.2240000000	temporal memory
0.2240000000	text information
0.2240000000	classification approaches
0.2240000000	classifier combination
0.2240000000	neural systems
0.2240000000	bayesian analysis
0.2240000000	initialization method
0.2240000000	short video
0.2240000000	interactive systems
0.2240000000	common patterns
0.2240000000	bayesian estimation
0.2240000000	perform feature
0.2240000000	networks rnn
0.2240000000	classification layer
0.2240000000	challenges including
0.2240000000	factorization based
0.2240000000	text image
0.2240000000	neural dynamics
0.2240000000	common structure
0.2240000000	classifier systems
0.2240000000	convolutional deep
0.2240000000	critical parameters
0.2240000000	bayesian computation
0.2240000000	text understanding
0.2240000000	networks learning
0.2240000000	ai techniques
0.2240000000	critical systems
0.2240000000	classification approach
0.2240000000	convolutional model
0.2240000000	neural controller
0.2240000000	original images
0.2240000000	classification scheme
0.2240000000	classification procedure
0.2240000000	temporal encoding
0.2240000000	temporal spatial
0.2240000000	bayesian setting
0.2240000000	text features
0.2240000000	error estimates
0.2240000000	decoding process
0.2240000000	nn model
0.2240000000	entropy method
0.2240000000	factorization models
0.2240000000	classification quality
0.2240000000	classification process
0.2240000000	classification experiments
0.2240000000	text similarity
0.2240000000	text retrieval
0.2240000000	common object
0.2240000000	object representations
0.2240000000	common space
0.2240000000	common problems
0.2240000000	security applications
0.2240000000	networks called
0.2240000000	neural learning
0.2240000000	common framework
0.2240000000	object interaction
0.2240000000	classification networks
0.2240000000	common benchmark
0.2240000000	neural response
0.2240000000	text localization
0.2240000000	classification step
0.2240000000	bayesian classifier
0.2240000000	networks significantly
0.2240000000	text independent
0.2240000000	classification rates
0.2240000000	temporal planning
0.2240000000	temporal behavior
0.2240000000	error learning
0.2240000000	object location
0.2240000000	object dataset
0.2240000000	classification applications
0.2240000000	bayesian classification
0.2240000000	classification schemes
0.2240000000	neural mechanisms
0.2240000000	classification setting
0.2240000000	average performance
0.2240000000	classification ability
0.2240000000	networks exhibit
0.2240000000	gaussian case
0.2240000000	identify relevant
0.2240000000	perform multi
0.2240000000	activity analysis
0.2240000000	recurrent convolutional
0.2240000000	classifier learning
0.2240000000	convolutional filter
0.2240000000	classification data
0.2240000000	factorization methods
0.2240000000	recurrent model
0.2240000000	object extraction
0.2240000000	disease detection
0.2240000000	minimal human
0.2240000000	common approaches
0.2240000000	video feature
0.2240000000	networks demonstrate
0.2240000000	directional information
0.2240000000	classification scores
0.2240000000	networks model
0.2240000000	text content
0.2240000000	recurrent layer
0.2240000000	common ground
0.2240000000	classification tree
0.2240000000	original features
0.2240000000	average cost
0.2240000000	error function
0.2240000000	neural conversation
0.2240000000	classification benchmark
0.2240000000	perform tasks
0.2240000000	simulated datasets
0.2240000000	classification rule
0.2240000000	similar performance
0.2240000000	temporal dynamic
0.2240000000	networks requires
0.2240000000	computing approximate
0.2240000000	object types
0.2240000000	perform visual
0.2240000000	temporal evolution
0.2240000000	common techniques
0.2240000000	bayesian interpretation
0.2240000000	temporal neural
0.2240000000	recurrent models
0.2240000000	designing algorithms
0.2240000000	recurrent architecture
0.2240000000	text input
0.2240000000	life applications
0.2240000000	similar problem
0.2240000000	perform data
0.2240000000	label map
0.2240000000	simulated examples
0.2240000000	intelligence based
0.2240000000	networks perform
0.2240000000	bayesian decision
0.2240000000	hierarchical attention
0.2240000000	common task
0.2240000000	networks gans
0.2240000000	closed world
0.2240000000	bayesian filtering
0.2240000000	neural tensor
0.2240000000	average loss
0.2240000000	similar characteristics
0.2240000000	classification dataset
0.2240000000	critical point
0.2240000000	label distributions
0.2240000000	probabilistic predictions
0.2240000000	common assumption
0.2240000000	probabilistic latent
0.2240000000	perform fast
0.2240000000	relaxation based
0.2240000000	temporal deep
0.2240000000	convolutional generative
0.2240000000	named deep
0.2240000000	convolutional structure
0.2240000000	networks e.g
0.2240000000	perform approximate
0.2240000000	neural image
0.2240000000	networks learn
0.2240000000	principled approach
0.2240000000	hierarchical tree
0.2240000000	networks cnns
0.2240000000	networks nn
0.2240000000	networks showing
0.2240000000	networks deep
0.2240000000	networks cnn
0.2240000000	networks designed
0.2240000000	common belief
0.2240000000	probabilistic expert
0.2240000000	text datasets
0.2240000000	hierarchical convolutional
0.2240000000	diverse datasets
0.2240000000	similar structures
0.2240000000	object reconstruction
0.2240000000	bayesian statistics
0.2240000000	bayesian logic
0.2240000000	perform exact
0.2240000000	perform object
0.2240000000	perform accurate
0.2240000000	perform efficient
0.2240000000	extracting knowledge
0.2240000000	probabilistic classification
0.2240000000	common image
0.2240000000	probabilistic perspective
0.2240000000	hierarchical representation
0.2240000000	probabilistic modelling
0.2240000000	factorization problems
0.2240000000	hierarchical topic
0.2240000000	average word
0.2240000000	abstract level
0.2240000000	label based
0.2240000000	activity prediction
0.2240000000	error minimization
0.2240000000	error detection
0.2240000000	error guarantees
0.2240000000	error probability
0.2240000000	error control
0.2240000000	error free
0.2240000000	common representation
0.2240000000	object surface
0.2240000000	common form
0.2240000000	temporal knowledge
0.2240000000	common latent
0.2240000000	networks provide
0.2240000000	identify key
0.2240000000	link function
0.2240000000	bayesian generative
0.2240000000	temporal structures
0.2240000000	label prediction
0.2240000000	label classification
0.2240000000	label problem
0.2240000000	label efficient
0.2240000000	label inference
0.2240000000	object boundary
0.2240000000	networks achieve
0.2240000000	entropy model
0.2240000000	entropy estimation
0.2240000000	integrating multiple
0.2240000000	original network
0.2240000000	hierarchical approach
0.2240000000	designing efficient
0.2240000000	ai based
0.2240000000	temporal segmentation
0.2240000000	bayesian method
0.2240000000	bayesian posterior
0.2240000000	bayesian modeling
0.2240000000	bayesian sparse
0.2240000000	bayesian reasoning
0.2240000000	bayesian approaches
0.2240000000	bayesian probabilistic
0.2240000000	driving dataset
0.2240000000	correspondence problem
0.2240000000	probabilistic learning
0.2240000000	intelligence applications
0.2240000000	intelligence techniques
0.2240000000	text systems
0.2240000000	end framework
0.2240000000	end user
0.2240000000	object pairs
0.2240000000	object labels
0.2240000000	temporal convolutional
0.2240000000	forward network
0.2240000000	bayesian hierarchical
0.2240000000	gaussian data
0.2240000000	combine information
0.2240000000	object attribute
0.2240000000	combine multiple
0.2240000000	probabilistic linear
0.2240000000	probabilistic formulation
0.2240000000	probabilistic approaches
0.2240000000	probabilistic image
0.2240000000	probabilistic method
0.2240000000	probabilistic algorithm
0.2240000000	hierarchical text
0.2240000000	hierarchical deep
0.2240000000	identify important
0.2240000000	hierarchical recurrent
0.2240000000	hierarchical latent
0.2240000000	hierarchical segmentation
0.2240000000	hierarchical learning
0.2240000000	hierarchical multi
0.2240000000	hierarchical information
0.2240000000	hierarchical gaussian
0.2240000000	hierarchical temporal
0.2240000000	hierarchical probabilistic
0.2240000000	hierarchical method
0.2240000000	hierarchical network
0.2240000000	hierarchical framework
0.2240000000	networks applied
0.2240000000	scene information
0.2240000000	scene reconstruction
0.2240000000	principled method
0.2240000000	temporal analysis
0.2240000000	temporal feature
0.2240000000	temporal pattern
0.2240000000	temporal graph
0.2240000000	temporal video
0.2240000000	temporal characteristics
0.2240000000	temporal nature
0.2240000000	temporal learning
0.2240000000	temporal order
0.2240000000	temporal aspects
0.2240000000	temporal variations
0.2240000000	original input
0.2240000000	original model
0.2240000000	scene structure
0.2240000000	scene analysis
0.2240000000	scene representation
0.2240000000	scene specific
0.2240000000	scene generation
0.2240000000	synthesized data
0.2240000000	correspondence analysis
0.2240000000	logic networks
0.2240000000	syntax based
0.2240000000	mri dataset
0.2240000000	security systems
0.2240000000	body model
0.2240000000	disease prediction
0.2240000000	disease classification
0.2240000000	permutation based
0.2240000000	transform based
0.2240000000	transform domain
0.2240000000	dcnn based
0.2240000000	asymptotic results
0.2240000000	asymptotic performance
0.2240000000	asymptotic analysis
0.2240000000	mri datasets
0.2240000000	carlo techniques
0.2240000000	carlo algorithm
0.2240000000	multiple sequence
0.2240000000	problem efficiently
0.2240000000	decomposition scheme
0.2240000000	decomposition technique
0.2240000000	decomposition methods
0.2240000000	decomposition based
0.2240000000	decomposition model
0.2240000000	rank based
0.2240000000	pruning method
0.2240000000	analysis method
0.2240000000	detection datasets
0.2240000000	distributed algorithm
0.2240000000	distributed representation
0.2240000000	deterministic algorithm
0.2240000000	reduced computational
0.2240000000	reduced gradient
0.2240000000	segmentation result
0.2240000000	explicitly models
0.2240000000	analysis tool
0.2240000000	analysis applications
0.2240000000	fuzzy based
0.2240000000	analysis including
0.2240000000	segmentation object
0.2240000000	decomposition algorithm
0.2240000000	monitoring systems
0.2240000000	rank models
0.2240000000	phone based
0.2240000000	feedforward network
0.2240000000	weight distribution
0.2240000000	probability model
0.2240000000	limited computational
0.2240000000	noisy input
0.2240000000	noisy function
0.2240000000	noisy samples
0.2240000000	classical approach
0.2240000000	rank modeling
0.2240000000	reduced stochastic
0.2240000000	preserving data
0.2240000000	effectively identify
0.2240000000	effectively improve
0.2240000000	effectively model
0.2240000000	effectively solve
0.2240000000	effectively learn
0.2240000000	effectively applied
0.2240000000	analysis models
0.2240000000	logical structure
0.2240000000	multiple steps
0.2240000000	function space
0.2240000000	effectively trained
0.2240000000	problem difficulty
0.2240000000	property called
0.2240000000	unlabeled images
0.2240000000	unlabeled dataset
0.2240000000	unlabeled text
0.2240000000	logical framework
0.2240000000	multiple challenging
0.2240000000	logical systems
0.2240000000	multiple ways
0.2240000000	design method
0.2240000000	design process
0.2240000000	dependence structure
0.2240000000	function words
0.2240000000	tractable algorithm
0.2240000000	rank correlation
0.2240000000	function prediction
0.2240000000	variational framework
0.2240000000	variational problem
0.2240000000	variational approaches
0.2240000000	variables i.e
0.2240000000	problem solvers
0.2240000000	leveraging large
0.2240000000	evaluations demonstrate
0.2240000000	flow algorithm
0.2240000000	detailed analysis
0.2240000000	a logistic
0.2240000000	interesting research
0.2240000000	limited labeled
0.2240000000	scan image
0.2240000000	distributed multi
0.2240000000	distributed manner
0.2240000000	distributed random
0.2240000000	distributed environment
0.2240000000	distributed computation
0.2240000000	weight parameters
0.2240000000	conditions including
0.2240000000	accurately model
0.2240000000	preference based
0.2240000000	output prediction
0.2240000000	problem involves
0.2240000000	establish theoretical
0.2240000000	noisy gradient
0.2240000000	exploiting local
0.2240000000	gaze based
0.2240000000	output labels
0.2240000000	output examples
0.2240000000	update algorithm
0.2240000000	reduced complexity
0.2240000000	road networks
0.2240000000	variational objective
0.2240000000	leveraging deep
0.2240000000	logical language
0.2240000000	analyzing large
0.2240000000	noisy environment
0.2240000000	detailed experiments
0.2240000000	imaging methods
0.2240000000	imaging techniques
0.2240000000	imaging conditions
0.2240000000	medical decision
0.2240000000	medical field
0.2240000000	medical applications
0.2240000000	flow based
0.2240000000	conceptual framework
0.2240000000	distributed framework
0.2240000000	scenarios including
0.2240000000	scenarios e.g
0.2240000000	fundamental tasks
0.2240000000	fundamental task
0.2240000000	fundamental properties
0.2240000000	fundamental challenge
0.2240000000	detect multiple
0.2240000000	decomposition approach
0.2240000000	produces significantly
0.2240000000	produces high
0.2240000000	metric called
0.2240000000	meaningful representations
0.2240000000	meaningful features
0.2240000000	fundamental matrix
0.2240000000	separation problem
0.2240000000	pruning algorithm
0.2240000000	detection process
0.2240000000	analysis framework
0.2240000000	mlp based
0.2240000000	distributed implementation
0.2240000000	limited view
0.2240000000	limited information
0.2240000000	limited range
0.2240000000	segmentation technique
0.2240000000	obtain optimal
0.2240000000	classical image
0.2240000000	classical algorithm
0.2240000000	classical probability
0.2240000000	classical results
0.2240000000	classical statistical
0.2240000000	classical algorithms
0.2240000000	leveraging recent
0.2240000000	classical problems
0.2240000000	classical multi
0.2240000000	multiple cues
0.2240000000	carlo based
0.2240000000	multiple attribute
0.2240000000	multiple objectives
0.2240000000	multiple aspects
0.2240000000	multiple hypothesis
0.2240000000	multiple view
0.2240000000	multiple stages
0.2240000000	multiple attributes
0.2240000000	multiple documents
0.2240000000	multiple benchmarks
0.2240000000	multiple spatial
0.2240000000	multiple kernels
0.2240000000	multiple classes
0.2240000000	multiple video
0.2240000000	multiple images
0.2240000000	multiple alignment
0.2240000000	multiple sparse
0.2240000000	detection rates
0.2240000000	denoising techniques
0.2240000000	multiple sensors
0.2240000000	problem dependent
0.2240000000	function estimation
0.2240000000	problem formulations
0.2240000000	segmentation benchmark
0.2240000000	detailed information
0.2240000000	problem consists
0.2240000000	segmentation error
0.2240000000	analysis methods
0.2240000000	output data
0.2240000000	probability matrix
0.2240000000	output sequences
0.2240000000	obtain significant
0.2240000000	selected features
0.2240000000	rank components
0.2240000000	interesting problems
0.2240000000	multiple independent
0.2240000000	multiple machines
0.2240000000	lower accuracy
0.2240000000	multiple deep
0.2240000000	problem setting
0.2240000000	transformed data
0.2240000000	segmentation techniques
0.2240000000	output weights
0.2240000000	multiple algorithms
0.2240000000	segmentation problems
0.2240000000	obtain improved
0.2240000000	imaging applications
0.2240000000	multiple feature
0.2240000000	lda based
0.2240000000	output distributions
0.2240000000	analysis operator
0.2240000000	segmentation process
0.2240000000	probability based
0.2240000000	effectively capture
0.2240000000	denoising algorithm
0.2240000000	multiple cameras
0.2240000000	output values
0.2240000000	learns features
0.2240000000	output pairs
0.2240000000	function theory
0.2240000000	output quality
0.2240000000	problem classes
0.2240000000	noisy training
0.2240000000	interesting problem
0.2240000000	saliency based
0.2240000000	settings including
0.2240000000	detection speed
0.2240000000	behavioral data
0.2240000000	rank estimation
0.2240000000	lower cost
0.2240000000	denoising method
0.2240000000	noisy case
0.2240000000	segmentation benchmarks
0.2240000000	multiple outputs
0.2240000000	output images
0.2240000000	multiple input
0.2240000000	deterministic models
0.2240000000	weight learning
0.2240000000	multiple latent
0.2240000000	denoising results
0.2240000000	multiple robots
0.2240000000	multiple class
0.2240000000	interesting features
0.2240000000	detection network
0.2240000000	document specific
0.2240000000	conditions e.g
0.2240000000	analysis approaches
0.2240000000	cross task
0.2240000000	function values
0.2240000000	detailed study
0.2240000000	solutions i.e
0.2240000000	exploiting multiple
0.2240000000	design methodology
0.2240000000	multiple constraints
0.2240000000	problem settings
0.2240000000	problem remains
0.2240000000	obtain promising
0.2240000000	problem solver
0.2240000000	document analysis
0.2240000000	reduced number
0.2240000000	multiple moving
0.2240000000	lda model
0.2240000000	design matrix
0.2240000000	detection research
0.2240000000	analysis results
0.2240000000	multiple models
0.2240000000	denoising problem
0.2240000000	multiple components
0.2240000000	analysis process
0.2240000000	forecasting problem
0.2240000000	analysis approach
0.2240000000	problem structure
0.2240000000	fuzzy modeling
0.2240000000	analysis task
0.2240000000	multiple image
0.2240000000	design framework
0.2240000000	a fitness
0.2240000000	potential risk
0.2240000000	deterministic algorithms
0.2240000000	imaging problems
0.2240000000	weight based
0.2240000000	function free
0.2240000000	probability values
0.2240000000	flow problem
0.2240000000	convolution based
0.2240000000	length vector
0.2240000000	problem i.e
0.2240000000	lower layer
0.2240000000	analysis algorithms
0.2240000000	proposal methods
0.2240000000	medical domain
0.2240000000	lower memory
0.2240000000	noisy text
0.2240000000	distributed environments
0.2240000000	reduced space
0.2240000000	increasing complexity
0.2240000000	problem including
0.2240000000	analysis requires
0.2240000000	variational optimization
0.2240000000	probability maps
0.2240000000	analysis problem
0.2240000000	potential future
0.2240000000	convolution networks
0.2240000000	obtain similar
0.2240000000	problem arising
0.2240000000	function evaluation
0.2240000000	problem called
0.2240000000	diagnosis systems
0.2240000000	analysis showing
0.2240000000	analysis demonstrate
0.2240000000	noisy information
0.2240000000	lower order
0.2240000000	rank optimization
0.2240000000	potential solutions
0.2240000000	distributed setting
0.2240000000	analysis model
0.2240000000	multiple measurement
0.2240000000	lower complexity
0.2240000000	multiple heterogeneous
0.2240000000	carlo method
0.2240000000	texture feature
0.2240000000	texture information
0.2240000000	analysis systems
0.2240000000	potential function
0.2240000000	potential application
0.2240000000	potential based
0.2240000000	potential energy
0.2240000000	analysis technique
0.2240000000	solutions obtained
0.2240000000	lower quality
0.2240000000	works effectively
0.2240000000	trivial task
0.2240000000	length scale
0.2240000000	output layers
0.2240000000	decomposition problem
0.2240000000	variance based
0.2240000000	lower resolution
0.2240000000	design algorithms
0.2240000000	design efficient
0.2240000000	analysis problems
0.2240000000	function i.e
0.2240000000	learns multiple
0.2240000000	multiple classifier
0.2240000000	detection technique
0.2240000000	detection dataset
0.2240000000	obtain results
0.2240000000	flow computation
0.2240000000	detection benchmarks
0.2240000000	distributed processing
0.2240000000	medical research
0.2240000000	weight space
0.2240000000	loss term
0.2240000000	rank order
0.2240000000	output function
0.2240000000	post process
0.2240000000	segmentation free
0.2240000000	function network
0.2240000000	function called
0.2240000000	function e.g
0.2240000000	segmentation networks
0.2240000000	multiple categories
0.2240000000	detection plays
0.2240000000	segmentation framework
0.2240000000	segmentation systems
0.2240000000	segmentation map
0.2240000000	multiple local
0.2240000000	problem instance
0.2240000000	problem domain
0.2240000000	multiple human
0.2240000000	problem studied
0.2240000000	problem size
0.2240000000	multiple semantic
0.2240000000	multiple related
0.2240000000	multiple applications
0.2240000000	multiple solutions
0.2240000000	texture based
0.2240000000	detection problems
0.2240000000	analysis demonstrates
0.2240000000	obtain competitive
0.2240000000	obtain accurate
0.2240000000	encoder network
0.2240000000	reduced significantly
0.2240000000	detection benchmark
0.2240000000	detection tasks
0.2240000000	detection aims
0.2240000000	detection pipeline
0.2240000000	detection challenge
0.2240000000	detection scheme
0.2240000000	detection mechanism
0.2240000000	detection score
0.2240000000	detection approaches
0.2240000000	fundamental problem
0.2240000000	limited precision
0.2240000000	function classes
0.2240000000	suitable conditions
0.2240000000	multiple random
0.2240000000	problem sizes
0.2240000000	multiple features
0.2240000000	multiple low
0.2240000000	multiple real
0.2240000000	partially linear
0.2240000000	handling large
0.2240000000	proposal network
0.2240000000	gp based
0.2240000000	detect objects
0.2240000000	wikipedia based
0.2240000000	mixing model
0.2240000000	monocular image
0.2240000000	monocular images
0.2240000000	rapid learning
0.2240000000	crf based
0.2240000000	count data
0.2240000000	conceptual model
0.2240000000	preference learning
0.2240000000	preference information
0.2240000000	interval based
0.2230000000	for human face recognition
0.2230000000	a finite number of
0.2230000000	the false alarm rate
0.2230000000	for large scale problems
0.2230000000	using artificial neural network
0.2230000000	the first algorithm for
0.2230000000	the source code of
0.2230000000	the joint probability distribution
0.2230000000	the indian buffet process
0.2230000000	the root mean square
0.2230000000	the restricted isometry property
0.2230000000	a finite set of
0.2230000000	a significant increase in
0.2230000000	convergence rates for
0.2230000000	convergence rates of
0.2230000000	a pr2 robot
0.2230000000	handwritten digits and
0.2230000000	memory requirements and
0.2230000000	learning on graphs
0.2230000000	detecting anomalies in
0.2230000000	the head of
0.2230000000	achieves comparable or
0.2230000000	english german and
0.2230000000	source code and
0.2230000000	experimental evaluation on
0.2230000000	data for learning
0.2230000000	ideally suited for
0.2230000000	parameter estimation for
0.2230000000	inference for gaussian
0.2230000000	international conference on
0.2230000000	performance gains over
0.2230000000	fewer parameters than
0.2230000000	set of target
0.2230000000	analytical expressions for
0.2230000000	a riemannian manifold
0.2230000000	the latent structure
0.2230000000	english and english
0.2230000000	average precision of
0.2230000000	a multilayer perceptron
0.2230000000	real time semantic
0.2230000000	differential equations and
0.2230000000	the transfer of
0.2230000000	based on mutual
0.2230000000	research areas in
0.2230000000	improvement in performance
0.2230000000	theoretical guarantees on
0.2230000000	improved performance over
0.2230000000	simulated annealing and
0.2230000000	nonlinear system identification
0.2230000000	the leading causes
0.2230000000	algorithm for image
0.2230000000	points and lines
0.2230000000	unsupervised discovery of
0.2230000000	algorithm for online
0.2230000000	data collected in
0.2230000000	error bound for
0.2230000000	log t t
0.2230000000	at regular intervals
0.2230000000	an unsupervised way
0.2230000000	labels of
0.2230000000	sparse and
0.2230000000	this in
0.2230000000	knowledge in
0.2230000000	entities in
0.2230000000	the reduced
0.2230000000	the service
0.2230000000	the novelty
0.2230000000	difficult because
0.2230000000	the common
0.2230000000	the challenge
0.2230000000	of scientific
0.2230000000	children s
0.2230000000	an early
0.2230000000	borrowed from
0.2230000000	massive amount
0.2230000000	1 lambda
0.2230000000	a view
0.2230000000	a target
0.2230000000	1 beta
0.2220000000	the field of deep learning
0.2220000000	success of deep learning in
0.2220000000	problems in machine learning and
0.2220000000	end to end learning for
0.2220000000	on deep neural network
0.2220000000	at semeval 2017 task
0.2220000000	an important step towards
0.2220000000	of artificial intelligence ai
0.2220000000	the average performance of
0.2220000000	using deep neural network
0.2220000000	significantly outperforms state of
0.2220000000	and multi label classification
0.2220000000	the presence of missing
0.2220000000	deep learning model for
0.2220000000	segmentation and classification of
0.2220000000	the high dimensional space
0.2220000000	for approximate nearest neighbor
0.2220000000	of multi task learning
0.2220000000	model outperforms state of
0.2220000000	a natural language interface
0.2220000000	of statistical machine translation
0.2220000000	an embedding of
0.2220000000	mnist svhn and
0.2220000000	labeled faces in
0.2220000000	as large as
0.2220000000	experimental evaluations on
0.2220000000	human visual system
0.2220000000	significant gains over
0.2220000000	confidence intervals for
0.2220000000	experimental evaluations show
0.2220000000	a representation of
0.2220000000	building block of
0.2220000000	large volumes of
0.2220000000	problem of high
0.2220000000	building block for
0.2220000000	important role in
0.2220000000	simulation studies show
0.2220000000	recent successes in
0.2220000000	motion blur and
0.2220000000	memory consumption and
0.2220000000	parameter estimation in
0.2220000000	recent advancements in
0.2220000000	ell 1 penalty
0.2220000000	extensive evaluations on
0.2220000000	research area in
0.2220000000	a population of
0.2220000000	many applications including
0.2220000000	much more efficient
0.2220000000	comparable performance to
0.2220000000	grows linearly with
0.2220000000	dice coefficient of
0.2220000000	takes place in
0.2220000000	shown promise in
0.2220000000	convex surrogate of
0.2220000000	significantly lower than
0.2220000000	problems arising in
0.2220000000	the mean and
0.2220000000	phase transitions in
0.2220000000	strong baselines on
0.2220000000	the versatility of
0.2220000000	empirical evaluation on
0.2220000000	applied directly to
0.2220000000	promising directions for
0.2220000000	designed specifically for
0.2220000000	translation tasks show
0.2220000000	scale linearly with
0.2220000000	the spatio
0.2220000000	embeddings and
0.2220000000	the randomized
0.2220000000	the given
0.2220000000	the interest
0.2220000000	mathbb s
0.2220000000	of question
0.2220000000	of energy
0.2220000000	of entities
0.2220000000	of adaptive
0.2220000000	of humour
0.2220000000	ask whether
0.2220000000	missing value
0.2220000000	quality 3d
0.2220000000	with missing
0.2220000000	non markovian
0.2220000000	and higher
0.2220000000	well documented
0.2220000000	gender and
0.2220000000	times p
0.2220000000	a classification
0.2220000000	detection of
0.2210000000	synthetic and real data show
0.2210000000	significant improvements over state of
0.2210000000	signal to noise ratio and
0.2210000000	applications in machine learning and
0.2210000000	back propagation neural network
0.2210000000	of speech pos tagging
0.2210000000	the expectation maximization algorithm
0.2210000000	in natural scene images
0.2210000000	for dynamic texture recognition
0.2210000000	the optimal number of
0.2210000000	the constraint satisfaction problem
0.2210000000	a single forward pass
0.2210000000	a constrained optimization problem
0.2210000000	to solve optimization problems
0.2210000000	non linear dimensionality reduction
0.2210000000	a single depth image
0.2210000000	a multi agent system
0.2210000000	an efficient learning algorithm
0.2210000000	a graphical user interface
0.2210000000	the art hashing methods
0.2210000000	the large sample limit
0.2210000000	easy to implement and
0.2210000000	the decision making process
0.2210000000	with linear function approximation
0.2210000000	a single input image
0.2210000000	a sequence labeling problem
0.2210000000	to learn long term
0.2210000000	an undirected graphical model
0.2210000000	a single hidden layer
0.2210000000	an important research area
0.2210000000	a hot research topic
0.2210000000	to handle large scale
0.2210000000	the universal approximation property
0.2210000000	the art single model
0.2210000000	the false positive rate
0.2210000000	the art neural networks
0.2210000000	large amount of labeled
0.2210000000	the data sparsity problem
0.2210000000	a single neural network
0.2210000000	and ms coco datasets
0.2210000000	a globally optimal solution
0.2210000000	a dynamic bayesian network
0.2210000000	a lower dimensional space
0.2210000000	a directed acyclic graph
0.2210000000	computer vision speech recognition
0.2210000000	the zipf s law
0.2210000000	the encoder decoder framework
0.2210000000	the primary visual cortex
0.2210000000	a learning based approach
0.2210000000	the mnist data set
0.2210000000	a joint probability distribution
0.2210000000	to incorporate prior knowledge
0.2210000000	an np hard problem
0.2210000000	the globally optimal solution
0.2210000000	a feedforward neural network
0.2210000000	a visual turing test
0.2210000000	the original high dimensional
0.2210000000	for strongly convex functions
0.2210000000	a novel approach based
0.2210000000	a message passing algorithm
0.2210000000	a naive bayes classifier
0.2210000000	a controlled natural language
0.2210000000	the arcade learning environment
0.2210000000	the challenging pascal voc
0.2210000000	a learning to rank
0.2210000000	the skip gram model
0.2210000000	the sample covariance matrix
0.2210000000	the cold start problem
0.2210000000	a deep residual network
0.2210000000	an active research area
0.2210000000	of deep generative models
0.2210000000	the web ontology language
0.2210000000	a probabilistic generative model
0.2210000000	the experimental result shows
0.2210000000	a probabilistic graphical model
0.2210000000	for solving large scale
0.2210000000	for solving optimization problems
0.2210000000	a simple neural network
0.2210000000	the belief propagation algorithm
0.2210000000	in partially observable environments
0.2210000000	a pre processing step
0.2210000000	a post processing step
0.2210000000	the extended kalman filter
0.2210000000	a transfer learning approach
0.2210000000	a linear convergence rate
0.2210000000	n gram language model
0.2210000000	the negative log likelihood
0.2210000000	a conditional generative adversarial
0.2210000000	a nearest neighbor graph
0.2210000000	a combinatorial optimization problem
0.2210000000	the 1st place
0.2210000000	the increase in
0.2210000000	the data into
0.2210000000	human judgments of
0.2210000000	algorithms for multi
0.2210000000	human activities from
0.2210000000	false positive and
0.2210000000	the description of
0.2210000000	data acquisition and
0.2210000000	large collections of
0.2210000000	for image retrieval
0.2210000000	answer sets for
0.2210000000	constraint satisfaction and
0.2210000000	statistical mechanics of
0.2210000000	research topic in
0.2210000000	sub tasks
0.2210000000	3d meshes
0.2210000000	the seller
0.2210000000	the roi
0.2210000000	the project
0.2210000000	the corresponding
0.2210000000	of words
0.2210000000	utility of
0.2210000000	a recommender
0.2210000000	a degree
0.2210000000	in bioinformatics
0.2210000000	a description
0.2210000000	a boolean
0.2200000000	of deep convolutional neural networks for
0.2200000000	the deep convolutional neural network
0.2200000000	the representational power of
0.2200000000	a significant role in
0.2200000000	the low rank structure
0.2200000000	in reinforcement learning rl
0.2200000000	and support vector regression
0.2200000000	and real data demonstrate
0.2200000000	the pascal voc 2007
0.2200000000	and real data sets
0.2200000000	and real data experiments
0.2200000000	the vast majority of
0.2200000000	distributed representations of
0.2200000000	condition number of
0.2200000000	algorithms for learning
0.2200000000	the assignment of
0.2200000000	precision recall and
0.2200000000	role in determining
0.2200000000	depth maps and
0.2200000000	log log n
0.2200000000	error rate and
0.2200000000	of utmost importance
0.2200000000	number of target
0.2200000000	for skeleton based
0.2200000000	order to model
0.2200000000	the solutions of
0.2200000000	latent space and
0.2200000000	relies heavily on
0.2200000000	the convergence properties
0.2200000000	two stream convnets
0.2200000000	variety of problems
0.2200000000	architecture for learning
0.2200000000	under certain circumstances
0.2200000000	a policy for
0.2200000000	a summary of
0.2200000000	varying degrees of
0.2200000000	the proposed approaches
0.2200000000	english to german
0.2200000000	english to french
0.2200000000	convex optimization with
0.2200000000	structures of data
0.2200000000	action recognition and
0.2200000000	upper bound for
0.2200000000	the landscape of
0.2200000000	3d morphable model
0.2200000000	future directions for
0.2200000000	reasoning and
0.2200000000	leq 2
0.2200000000	systems of
0.2200000000	the variable
0.2200000000	the side
0.2200000000	the rewards
0.2200000000	the world
0.2200000000	the french
0.2200000000	the four
0.2200000000	the code
0.2200000000	of programs
0.2200000000	often not
0.2200000000	originates from
0.2200000000	those obtained
0.2200000000	a locally
0.2200000000	a game
0.2200000000	a message
0.2200000000	1 and
0.2200000000	r d
0.2190000000	direction method of multipliers and
0.2190000000	the maximum mean discrepancy mmd
0.2190000000	the first end to end
0.2190000000	a multi objective optimization
0.2190000000	using deep convolutional networks
0.2190000000	in mathbb r d
0.2190000000	on large scale datasets
0.2190000000	for multi objective optimization
0.2190000000	the first stage of
0.2190000000	learning agents in
0.2190000000	problem as one
0.2190000000	the same way
0.2190000000	learning algorithm and
0.2190000000	accuracy and efficiency
0.2190000000	learning and inference
0.2190000000	the first step
0.2190000000	based model and
0.2190000000	l 2 boosting
0.2190000000	the hyperparameters of
0.2190000000	the quadratic assignment
0.2190000000	loss function to
0.2190000000	on part of
0.2190000000	theory and practice
0.2190000000	the category of
0.2190000000	face images of
0.2190000000	comparable performance with
0.2190000000	word embeddings using
0.2190000000	logic programming with
0.2190000000	the robustness and
0.2190000000	theoretical computer science
0.2190000000	stochastic optimization with
0.2190000000	unsupervised learning to
0.2190000000	real datasets and
0.2190000000	multi camera system
0.2190000000	a fuzzy logic
0.2190000000	learning problems with
0.2190000000	on ms coco
0.2190000000	ability to capture
0.2190000000	sparse coefficients of
0.2190000000	sparse combination of
0.2190000000	for visual recognition
0.2190000000	fail to capture
0.2190000000	the isic 2017
0.2190000000	top n recommendation
0.2190000000	face and
0.2190000000	as found
0.2190000000	prediction and
0.2190000000	distribution and
0.2190000000	k n
0.2190000000	partitioned into
0.2190000000	phrases and
0.2190000000	the roles
0.2190000000	take place
0.2190000000	nodes and
0.2190000000	of documents
0.2190000000	of patterns
0.2190000000	of bayesian
0.2190000000	of attributes
0.2190000000	pose and
0.2190000000	little effort
0.2190000000	to get
0.2190000000	these images
0.2190000000	an improved
0.2190000000	these patterns
0.2190000000	functions used
0.2190000000	good agreement
0.2190000000	between time
0.2190000000	similarity and
0.2190000000	classifier and
0.2190000000	a spiking
0.2190000000	a 2
0.2190000000	function on
0.2190000000	a player
0.2190000000	a sparsity
0.2180000000	end to end framework
0.2180000000	the conditional distribution of
0.2180000000	the proposed method achieves
0.2180000000	the proposed approach outperforms
0.2180000000	of automatic speech recognition
0.2180000000	and multi task learning
0.2180000000	the convolutional neural networks
0.2180000000	using convolutional neural networks
0.2180000000	method for clustering
0.2180000000	marginal distribution of
0.2180000000	gaussian processes to
0.2180000000	per iteration cost
0.2180000000	convex hull of
0.2180000000	model based and
0.2180000000	group lasso and
0.2180000000	dimensional structure of
0.2180000000	word level and
0.2180000000	the processing of
0.2180000000	based learning of
0.2180000000	the probability density
0.2180000000	linear models with
0.2180000000	kernels based on
0.2180000000	optimal solution for
0.2180000000	community detection and
0.2180000000	approach to learning
0.2180000000	learning tasks such
0.2180000000	optimization algorithms to
0.2180000000	do not need
0.2180000000	mixture model and
0.2180000000	visual concepts and
0.2180000000	computational theory of
0.2180000000	optical flow to
0.2180000000	mixture models with
0.2180000000	fuzzy sets and
0.2180000000	of skin lesions
0.2180000000	online learning to
0.2180000000	the split bregman
0.2180000000	symbolic representation of
0.2180000000	gradient descent by
0.2180000000	polynomial number of
0.2180000000	image compression and
0.2180000000	means algorithm and
0.2180000000	error rate for
0.2180000000	bayesian inference to
0.2180000000	density function of
0.2180000000	missing data in
0.2180000000	clustering algorithms and
0.2180000000	fractal dimension and
0.2180000000	and ms coco
0.2180000000	pose estimation in
0.2180000000	machine translation in
0.2180000000	1 epsilon iterations
0.2180000000	extensively studied in
0.2180000000	prior distribution over
0.2180000000	learning mechanism for
0.2180000000	face images and
0.2180000000	text detection in
0.2180000000	based method and
0.2180000000	logic programs into
0.2180000000	rank matrix and
0.2180000000	logic programs and
0.2180000000	small set of
0.2180000000	image representation and
0.2180000000	object recognition system
0.2180000000	bayesian methods for
0.2180000000	image representation with
0.2180000000	embedding space to
0.2180000000	proposed methods to
0.2180000000	image patches and
0.2180000000	recognition rate and
0.2180000000	decision theory and
0.2180000000	fourier transform of
0.2180000000	depends critically on
0.2180000000	based clustering and
0.2180000000	model semantics for
0.2180000000	adversarial examples with
0.2180000000	point cloud and
0.2180000000	gradient algorithm for
0.2180000000	spatial resolution of
0.2180000000	spatial resolution and
0.2180000000	image reconstruction and
0.2180000000	model semantics and
0.2180000000	batch size and
0.2180000000	feature space to
0.2180000000	the cardinality of
0.2180000000	with partial observability
0.2180000000	without sacrificing accuracy
0.2180000000	object classes and
0.2180000000	source domain and
0.2180000000	density estimation in
0.2180000000	designed to handle
0.2180000000	causal inference in
0.2180000000	effective method to
0.2180000000	convolutional layer and
0.2180000000	adversarial training to
0.2180000000	speech recognition in
0.2180000000	speech recognition using
0.2180000000	network model of
0.2180000000	word order and
0.2180000000	data collected by
0.2180000000	learning rate for
0.2180000000	event recognition in
0.2180000000	structured and
0.2180000000	deciding whether
0.2180000000	matrices with
0.2180000000	constraints in
0.2180000000	style of
0.2180000000	on neural
0.2180000000	control of
0.2180000000	grouped into
0.2180000000	the gp
0.2180000000	the acs
0.2180000000	the generated
0.2180000000	the dca
0.2180000000	the hardware
0.2180000000	the pipeline
0.2180000000	dropout and
0.2180000000	the generality
0.2180000000	the specification
0.2180000000	chen et
0.2180000000	originating from
0.2180000000	omega 1
0.2180000000	of software
0.2180000000	of political
0.2180000000	images such
0.2180000000	ever growing
0.2180000000	and stuff
0.2180000000	and development
0.2180000000	deviate from
0.2180000000	a tweet
0.2180000000	probability of
0.2180000000	fuzzy c
0.2170000000	signal to noise ratio psnr and
0.2170000000	both synthetic and real data sets
0.2170000000	natural language processing tasks such as
0.2170000000	the decision boundary of
0.2170000000	the most discriminative features
0.2170000000	deep learning models for
0.2170000000	on real world datasets
0.2170000000	a tree structure
0.2170000000	clustering algorithm for
0.2170000000	the medical domain
0.2170000000	an embedding space
0.2170000000	map inference in
0.2170000000	to explicitly model
0.2170000000	and elastic net
0.2170000000	a euclidean space
0.2170000000	the naive bayes
0.2170000000	memory requirements of
0.2170000000	hypothesis testing in
0.2170000000	conditional distribution of
0.2170000000	search algorithm to
0.2170000000	an increasingly important
0.2170000000	become increasingly popular
0.2170000000	object detection for
0.2170000000	data augmentation in
0.2170000000	the testing phase
0.2170000000	model training and
0.2170000000	human pose and
0.2170000000	a block diagonal
0.2170000000	a conceptually simple
0.2170000000	in untrimmed videos
0.2170000000	a feed forward
0.2170000000	to jointly model
0.2170000000	a scale free
0.2170000000	in health care
0.2170000000	a differentially private
0.2170000000	the first phase
0.2170000000	for jointly learning
0.2170000000	many practical problems
0.2170000000	many practical scenarios
0.2170000000	many potential applications
0.2170000000	generative models in
0.2170000000	stationary points of
0.2170000000	bayesian method for
0.2170000000	non monotonic reasoning
0.2170000000	one major drawback
0.2170000000	a discriminator network
0.2170000000	a conceptual framework
0.2170000000	a previous paper
0.2170000000	a trained model
0.2170000000	in recent decades
0.2170000000	loss functions in
0.2170000000	a variable length
0.2170000000	without losing accuracy
0.2170000000	a game theoretic
0.2170000000	a regression model
0.2170000000	a nonparametric bayesian
0.2170000000	a knowledge based
0.2170000000	a gibbs sampler
0.2170000000	in practical applications
0.2170000000	a search engine
0.2170000000	a sparsity constraint
0.2170000000	the starting point
0.2170000000	a greedy algorithm
0.2170000000	a public dataset
0.2170000000	extensive experimentation on
0.2170000000	descent method for
0.2170000000	machine translation by
0.2170000000	machine translation for
0.2170000000	face recognition in
0.2170000000	hierarchical representation of
0.2170000000	data sources and
0.2170000000	any continuous function
0.2170000000	temporal information of
0.2170000000	in computational linguistics
0.2170000000	the interactions between
0.2170000000	the bi directional
0.2170000000	three main steps
0.2170000000	frac 1 sqrt
0.2170000000	the previously proposed
0.2170000000	neural networks such
0.2170000000	for binary classification
0.2170000000	proposed methods and
0.2170000000	the decoding process
0.2170000000	image generation and
0.2170000000	decision trees to
0.2170000000	a context sensitive
0.2170000000	a cost effective
0.2170000000	a context aware
0.2170000000	a parameter free
0.2170000000	topic model and
0.2170000000	a similarity metric
0.2170000000	a bias variance
0.2170000000	a sparse linear
0.2170000000	depends strongly on
0.2170000000	machine learning from
0.2170000000	for low resource
0.2170000000	compare favorably with
0.2170000000	the forward pass
0.2170000000	high dimensionality of
0.2170000000	the long standing
0.2170000000	the gradients of
0.2170000000	compare favorably to
0.2170000000	image reconstruction from
0.2170000000	high dimensionality and
0.2170000000	depth estimation and
0.2170000000	ell 0 norm
0.2170000000	and backward propagation
0.2170000000	arises naturally in
0.2170000000	performs comparably to
0.2170000000	detection dataset and
0.2170000000	for specific tasks
0.2170000000	the trade offs
0.2170000000	the square loss
0.2170000000	the foreground object
0.2170000000	the evolutionary process
0.2170000000	on artificial data
0.2170000000	larger number of
0.2170000000	visual content and
0.2170000000	for action classification
0.2170000000	for object classification
0.2170000000	metric learning for
0.2170000000	scales linearly in
0.2170000000	many nlp tasks
0.2170000000	convolutional layer with
0.2170000000	o d 2
0.2170000000	a likelihood function
0.2170000000	differ significantly from
0.2170000000	a sufficiently large
0.2170000000	the correlation of
0.2170000000	answer sets of
0.2170000000	studied extensively in
0.2170000000	learning theory and
0.2170000000	and pos tagging
0.2170000000	to end pipeline
0.2170000000	convolutional network and
0.2170000000	training set to
0.2170000000	learning rate and
0.2170000000	the google books
0.2170000000	word order of
0.2170000000	use deep
0.2170000000	p log
0.2170000000	layers and
0.2170000000	p c
0.2170000000	correlate well
0.2170000000	degree d
0.2170000000	the confusion
0.2170000000	information to
0.2170000000	e x
0.2170000000	using neural
0.2170000000	of solutions
0.2170000000	time of
0.2170000000	a metric
0.2160000000	both synthetic and real world datasets
0.2160000000	order of magnitude faster than
0.2160000000	on synthetic and real data
0.2160000000	the proposed method outperforms existing
0.2160000000	extensive experiments on synthetic and
0.2160000000	machine learning problems such as
0.2160000000	orders of magnitude larger than
0.2160000000	upper and lower bounds for
0.2160000000	performs favorably against state of
0.2160000000	lower and upper bounds on
0.2160000000	a simple yet effective method
0.2160000000	inspired by recent advances in
0.2160000000	machine learning tasks such as
0.2160000000	a broad range of applications
0.2160000000	the proposed method in comparison
0.2160000000	machine learning algorithms such as
0.2160000000	real world applications such as
0.2160000000	a simple yet effective approach
0.2160000000	the recent success of deep
0.2160000000	in order to build
0.2160000000	very deep convolutional neural
0.2160000000	in static images
0.2160000000	method for unsupervised
0.2160000000	to accurately predict
0.2160000000	objects in videos
0.2160000000	the estimation error
0.2160000000	an attractive alternative
0.2160000000	the change in
0.2160000000	application of quantum
0.2160000000	activity recognition from
0.2160000000	the patch level
0.2160000000	an energy efficient
0.2160000000	to significantly reduce
0.2160000000	of multipliers admm
0.2160000000	a distance measure
0.2160000000	a margin based
0.2160000000	a distance based
0.2160000000	the suggested method
0.2160000000	on small datasets
0.2160000000	for energy efficient
0.2160000000	covariance matrix of
0.2160000000	data in real
0.2160000000	the retrieval accuracy
0.2160000000	time frequency representations
0.2160000000	the embedded space
0.2160000000	the ms coco
0.2160000000	and qualitative evaluations
0.2160000000	not fully understood
0.2160000000	with hidden variables
0.2160000000	a population based
0.2160000000	dense correspondences between
0.2160000000	a spectral method
0.2160000000	on static images
0.2160000000	a previously unseen
0.2160000000	in recent times
0.2160000000	a time varying
0.2160000000	a previously proposed
0.2160000000	framework for image
0.2160000000	two public datasets
0.2160000000	an lstm based
0.2160000000	to fully utilize
0.2160000000	low resolution and
0.2160000000	word embeddings as
0.2160000000	an exponential family
0.2160000000	the maximization of
0.2160000000	the clinical domain
0.2160000000	the reconstructed image
0.2160000000	the hough transform
0.2160000000	for sarcasm detection
0.2160000000	model for human
0.2160000000	a fitness function
0.2160000000	a similarity function
0.2160000000	a similarity matrix
0.2160000000	discussed in detail
0.2160000000	texture features of
0.2160000000	a character level
0.2160000000	in metric spaces
0.2160000000	adversarial examples for
0.2160000000	the regularization of
0.2160000000	a randomized algorithm
0.2160000000	of varying sizes
0.2160000000	a cost sensitive
0.2160000000	sufficient conditions on
0.2160000000	from unstructured text
0.2160000000	from empirical data
0.2160000000	two consecutive frames
0.2160000000	several desirable properties
0.2160000000	vector machines and
0.2160000000	best reported results
0.2160000000	the markov chain
0.2160000000	of oriented gradients
0.2160000000	training of large
0.2160000000	a speech recognizer
0.2160000000	and speech processing
0.2160000000	sentiment analysis to
0.2160000000	a naive approach
0.2160000000	empirical study on
0.2160000000	the moving object
0.2160000000	one hidden layer
0.2160000000	a kalman filter
0.2160000000	and rotation invariant
0.2160000000	for indian languages
0.2160000000	of twitter users
0.2160000000	good generalization ability
0.2160000000	a region proposal
0.2160000000	for autonomous driving
0.2160000000	the exploration exploitation
0.2160000000	a semi automatic
0.2160000000	convex relaxation of
0.2160000000	a single input
0.2160000000	a regularization parameter
0.2160000000	a widely studied
0.2160000000	a software tool
0.2160000000	very close to
0.2160000000	sets of variables
0.2160000000	results hold for
0.2160000000	to end differentiable
0.2160000000	classification of hyperspectral
0.2160000000	and memory requirements
0.2160000000	neural nets and
0.2160000000	if and only
0.2160000000	still unclear
0.2160000000	exploration in
0.2160000000	sub trees
0.2160000000	s gaze
0.2160000000	distribution for
0.2160000000	supervised and
0.2160000000	algorithms to
0.2160000000	resolution of
0.2160000000	the 2017
0.2160000000	the three
0.2160000000	the propositional
0.2160000000	the null
0.2160000000	the series
0.2160000000	shi and
0.2160000000	these conditions
0.2160000000	a sampling
0.2160000000	segmentation in
0.2160000000	a constraint
0.2160000000	a portfolio
0.2160000000	a pac
0.2160000000	a focus
0.2150000000	on synthetic and real data sets
0.2150000000	an alternating direction method of multipliers
0.2150000000	alternating direction method of multipliers and
0.2150000000	both in theory and in practice
0.2150000000	on synthetic and real world datasets
0.2150000000	in machine learning and data mining
0.2150000000	on synthetic and real world data
0.2150000000	both simulated data and real
0.2150000000	problems in computer vision and
0.2150000000	two orders of magnitude faster
0.2150000000	method does not rely on
0.2150000000	the number of samples required
0.2150000000	a new family of
0.2150000000	comparison to state of
0.2150000000	achieve new state of
0.2150000000	many machine learning problems
0.2150000000	of modern machine learning
0.2150000000	of remote sensing images
0.2150000000	a novel multi task
0.2150000000	accuracy and speed of
0.2150000000	a machine learning technique
0.2150000000	set of experiments on
0.2150000000	a deep learning method
0.2150000000	for statistical machine translation
0.2150000000	detection and tracking of
0.2150000000	in recurrent neural networks
0.2150000000	perform on par with
0.2150000000	for large data sets
0.2150000000	emerged as one of
0.2150000000	performs much better than
0.2150000000	polynomial time algorithm for
0.2150000000	comparison with state of
0.2150000000	many real world tasks
0.2150000000	number of neurons in
0.2150000000	a computationally efficient algorithm
0.2150000000	a genetic algorithm based
0.2150000000	the l 2 norm
0.2150000000	baseline and state of
0.2150000000	neural networks such as
0.2150000000	a locally optimal
0.2150000000	to accurately estimate
0.2150000000	an ising model
0.2150000000	the steady state
0.2150000000	c means algorithm
0.2150000000	and conquer approach
0.2150000000	a transition based
0.2150000000	in clinical practice
0.2150000000	a lexical database
0.2150000000	an approximately optimal
0.2150000000	an rgb image
0.2150000000	non expert users
0.2150000000	and statistically efficient
0.2150000000	the dependence of
0.2150000000	the receptive field
0.2150000000	c means clustering
0.2150000000	two fundamental problems
0.2150000000	and pepper noise
0.2150000000	on three different
0.2150000000	algorithms for solving
0.2150000000	an increasingly popular
0.2150000000	of fundamental importance
0.2150000000	become increasingly important
0.2150000000	with missing entries
0.2150000000	in high dimension
0.2150000000	the free energy
0.2150000000	the fitness function
0.2150000000	a mobile device
0.2150000000	to jointly learn
0.2150000000	from monocular images
0.2150000000	a web based
0.2150000000	a siamese network
0.2150000000	the squared loss
0.2150000000	in sponsored search
0.2150000000	the geodesic distance
0.2150000000	in safety critical
0.2150000000	on large datasets
0.2150000000	the opposite direction
0.2150000000	by jointly optimizing
0.2150000000	a paradigm shift
0.2150000000	a partially observed
0.2150000000	a partially observable
0.2150000000	a directed graph
0.2150000000	two challenging datasets
0.2150000000	by jointly learning
0.2150000000	by jointly training
0.2150000000	the curve auc
0.2150000000	made significant progress
0.2150000000	to fine tune
0.2150000000	to greatly reduce
0.2150000000	self paced learning
0.2150000000	to stationary points
0.2150000000	an early stage
0.2150000000	the uniform distribution
0.2150000000	with numerous applications
0.2150000000	and svhn datasets
0.2150000000	while simultaneously learning
0.2150000000	and real data
0.2150000000	the gray level
0.2150000000	on resource constrained
0.2150000000	few shot learning
0.2150000000	a hard task
0.2150000000	perform very well
0.2150000000	a building block
0.2150000000	a shallow network
0.2150000000	a log linear
0.2150000000	in retinal images
0.2150000000	a biologically plausible
0.2150000000	a biologically inspired
0.2150000000	a piecewise constant
0.2150000000	a sparsity inducing
0.2150000000	the augmented lagrangian
0.2150000000	a scoring function
0.2150000000	a hard problem
0.2150000000	a proposal distribution
0.2150000000	the coco dataset
0.2150000000	a massively parallel
0.2150000000	a bi directional
0.2150000000	in mobile robotics
0.2150000000	a gold standard
0.2150000000	a notoriously difficult
0.2150000000	in uncertain environments
0.2150000000	a feedback loop
0.2150000000	one major challenge
0.2150000000	mean absolute error
0.2150000000	to fully exploit
0.2150000000	an active learning
0.2150000000	to dramatically reduce
0.2150000000	and synthetic datasets
0.2150000000	the recently released
0.2150000000	deep learning for
0.2150000000	to pre train
0.2150000000	in higher dimensions
0.2150000000	and space complexity
0.2150000000	the satisfiability problem
0.2150000000	from single images
0.2150000000	in cluttered scenes
0.2150000000	an svm classifier
0.2150000000	a similarity measure
0.2150000000	function approximation and
0.2150000000	in noisy environments
0.2150000000	a dirichlet process
0.2150000000	in euclidean space
0.2150000000	the kalman filter
0.2150000000	a recently published
0.2150000000	a desirable property
0.2150000000	a boolean function
0.2150000000	a bidirectional lstm
0.2150000000	in dynamic environments
0.2150000000	a validation set
0.2150000000	to drastically reduce
0.2150000000	the laplace approximation
0.2150000000	each video frame
0.2150000000	by explicitly modeling
0.2150000000	a hilbert space
0.2150000000	best performing model
0.2150000000	from motion sfm
0.2150000000	a carefully designed
0.2150000000	a bio inspired
0.2150000000	the gaussian distribution
0.2150000000	automatic annotation of
0.2150000000	the elastic net
0.2150000000	the network s
0.2150000000	the unit sphere
0.2150000000	the alignment of
0.2150000000	from diverse domains
0.2150000000	this general framework
0.2150000000	a penalty term
0.2150000000	introduce two new
0.2150000000	of handwritten digits
0.2150000000	works well on
0.2150000000	a pac bayesian
0.2150000000	a newly introduced
0.2150000000	a mixture model
0.2150000000	a newly proposed
0.2150000000	a primal dual
0.2150000000	scales well with
0.2150000000	in urban areas
0.2150000000	yet challenging task
0.2150000000	the reported results
0.2150000000	of twitter data
0.2150000000	in intensive care
0.2150000000	also briefly discuss
0.2150000000	the patient s
0.2150000000	the vision community
0.2150000000	deep network and
0.2150000000	an entropy based
0.2150000000	an alternate approach
0.2150000000	and error prone
0.2150000000	the tuning parameter
0.2150000000	the quantization error
0.2150000000	the newly proposed
0.2150000000	the newly introduced
0.2150000000	for pose invariant
0.2150000000	entries of
0.2150000000	sub word
0.2150000000	labels from
0.2150000000	frames and
0.2150000000	v 1
0.2150000000	p times
0.2150000000	sequence of
0.2150000000	3d lidar
0.2150000000	for learning
0.2150000000	the nn
0.2150000000	the projected
0.2150000000	the scheme
0.2150000000	the youtube
0.2150000000	the ib
0.2150000000	distributions and
0.2150000000	of experiments
0.2150000000	of endmembers
0.2150000000	of cervical
0.2150000000	these regions
0.2150000000	t log
0.2150000000	space and
0.2150000000	space for
0.2150000000	and social
0.2150000000	n 0
0.2150000000	and based
0.2150000000	a bank
0.2150000000	a convex
0.2140000000	a great deal of attention
0.2140000000	the bag of words bow
0.2140000000	both real and synthetic data
0.2140000000	both simulated and real data
0.2140000000	on real and synthetic data
0.2140000000	in contrast to previous works
0.2140000000	on two real world datasets
0.2140000000	on simulated and real data
0.2140000000	on synthetic and real datasets
0.2140000000	applications in computer vision and
0.2140000000	a novel deep learning framework
0.2140000000	a novel deep learning approach
0.2140000000	in statistics and machine learning
0.2140000000	of deep convolutional neural networks
0.2140000000	the singular value decomposition svd
0.2140000000	both synthetic data and real
0.2140000000	an integral part of
0.2140000000	art results on several
0.2140000000	structured data such as
0.2140000000	number of samples for
0.2140000000	source of information for
0.2140000000	human computer interaction and
0.2140000000	a compact representation of
0.2140000000	achieves better results than
0.2140000000	terms of accuracy and
0.2140000000	generative models such as
0.2140000000	the large amount of
0.2140000000	achieve better performance than
0.2140000000	smaller set of
0.2140000000	class of problems
0.2140000000	despite significant progress
0.2140000000	a maximum entropy
0.2140000000	a recurrent network
0.2140000000	riemannian geometry of
0.2140000000	the computational burden
0.2140000000	than competing methods
0.2140000000	an extremely efficient
0.2140000000	and action spaces
0.2140000000	a highly efficient
0.2140000000	object detection with
0.2140000000	with fewer parameters
0.2140000000	the testing stage
0.2140000000	2017 skin lesion
0.2140000000	items based on
0.2140000000	learning tasks with
0.2140000000	the conditional independence
0.2140000000	similarity measures and
0.2140000000	human activities in
0.2140000000	a pixel wise
0.2140000000	a big challenge
0.2140000000	generalize well to
0.2140000000	and challenging task
0.2140000000	difficult to obtain
0.2140000000	and pooling layers
0.2140000000	in japanese sentences
0.2140000000	a textual description
0.2140000000	loss function and
0.2140000000	performance guarantees for
0.2140000000	for mobile robots
0.2140000000	logic programs with
0.2140000000	a sampling based
0.2140000000	generalizes well across
0.2140000000	domain adaptation in
0.2140000000	word embeddings to
0.2140000000	in medical imaging
0.2140000000	based on structural
0.2140000000	a training dataset
0.2140000000	a training corpus
0.2140000000	a globally consistent
0.2140000000	deep model for
0.2140000000	the finite sample
0.2140000000	machine learning and
0.2140000000	kernel methods and
0.2140000000	using privileged information
0.2140000000	learns to predict
0.2140000000	intrinsic dimension of
0.2140000000	the prior knowledge
0.2140000000	for video classification
0.2140000000	different body parts
0.2140000000	trained only with
0.2140000000	component analysis with
0.2140000000	experiment results show
0.2140000000	the contextual information
0.2140000000	in natural scenes
0.2140000000	in closed form
0.2140000000	works well for
0.2140000000	conduct experiments on
0.2140000000	the expressiveness of
0.2140000000	introduce two novel
0.2140000000	generalize to new
0.2140000000	for robot navigation
0.2140000000	and wearable devices
0.2140000000	line of work
0.2140000000	two real
0.2140000000	for sequence
0.2140000000	the act
0.2140000000	the nb
0.2140000000	coordinate system
0.2140000000	the maintenance
0.2140000000	made possible
0.2140000000	of classifiers
0.2140000000	impaired people
0.2140000000	q network
0.2140000000	age and
0.2140000000	by fine
0.2140000000	approach and
0.2140000000	characterised by
0.2140000000	a community
0.2140000000	hampered by
0.2130000000	neural networks as well as
0.2130000000	series of experiments with
0.2130000000	presence or absence of
0.2130000000	position and orientation of
0.2130000000	favorably against state of
0.2130000000	hundreds of thousands of
0.2130000000	a semi supervised learning
0.2130000000	hundreds of millions of
0.2130000000	significantly better results than
0.2130000000	robustness to noise and
0.2130000000	considered as one of
0.2130000000	advantages and disadvantages of
0.2130000000	word error rate of
0.2130000000	low rank matrix and
0.2130000000	robust to noise and
0.2130000000	in time polynomial in
0.2130000000	outperforms many state of
0.2130000000	data sets and show
0.2130000000	tens of thousands of
0.2130000000	a model based on
0.2130000000	presence of noise and
0.2130000000	rows and columns of
0.2130000000	family of algorithms for
0.2130000000	significantly better performance than
0.2130000000	real data sets show
0.2130000000	polynomial time algorithms for
0.2130000000	leads to state of
0.2130000000	frames per second on
0.2130000000	exploration and exploitation in
0.2130000000	achieves better performance than
0.2130000000	compared to previous work
0.2130000000	design and development of
0.2130000000	entities and relations in
0.2130000000	tens of millions of
0.2130000000	the number of iterations
0.2130000000	strengths and weaknesses of
0.2130000000	improvements over state of
0.2130000000	close to state of
0.2130000000	simple and easy to
0.2130000000	this challenging task
0.2130000000	the riemannian geometry
0.2130000000	co saliency detection
0.2130000000	the facial landmarks
0.2130000000	the prediction accuracy
0.2130000000	the upper bounds
0.2130000000	the data matrix
0.2130000000	of semi supervised
0.2130000000	based approach to
0.2130000000	body of work
0.2130000000	the label noise
0.2130000000	and aspect ratio
0.2130000000	as feature extractors
0.2130000000	of image features
0.2130000000	an exponentially large
0.2130000000	in stark contrast
0.2130000000	the activation of
0.2130000000	system of equations
0.2130000000	by domain experts
0.2130000000	the collected data
0.2130000000	the kernel matrix
0.2130000000	the cross modal
0.2130000000	the cross validation
0.2130000000	the spatial relations
0.2130000000	the image based
0.2130000000	an anytime algorithm
0.2130000000	of information extraction
0.2130000000	of multi task
0.2130000000	co occurrence matrix
0.2130000000	and link prediction
0.2130000000	a deep belief
0.2130000000	a statistically significant
0.2130000000	in statistical physics
0.2130000000	loss functions to
0.2130000000	the optimal cost
0.2130000000	the fully supervised
0.2130000000	deep models for
0.2130000000	of lung cancer
0.2130000000	neural networks and
0.2130000000	comparable or better
0.2130000000	for data representation
0.2130000000	the description logic
0.2130000000	sufficient and necessary
0.2130000000	the fusion of
0.2130000000	the actions of
0.2130000000	ease of use
0.2130000000	generalizes well to
0.2130000000	domain adaptation with
0.2130000000	the proposed online
0.2130000000	to approximately solve
0.2130000000	a decision tree
0.2130000000	of data analysis
0.2130000000	of variable selection
0.2130000000	of genetic algorithms
0.2130000000	a prototype system
0.2130000000	in dermoscopy images
0.2130000000	of social networks
0.2130000000	the observed variables
0.2130000000	a monocular camera
0.2130000000	a decision theoretic
0.2130000000	the learning method
0.2130000000	for sequence labeling
0.2130000000	high and low
0.2130000000	non overlapping camera
0.2130000000	sentiment analysis for
0.2130000000	the action recognition
0.2130000000	and actor critic
0.2130000000	a light weight
0.2130000000	similar or better
0.2130000000	the gaussian kernel
0.2130000000	the real data
0.2130000000	the mapping of
0.2130000000	from facial images
0.2130000000	gibbs sampler for
0.2130000000	performance compared to
0.2130000000	of human action
0.2130000000	of handwritten bangla
0.2130000000	a closed loop
0.2130000000	a literature review
0.2130000000	type i and
0.2130000000	a newly developed
0.2130000000	a pilot study
0.2130000000	in image quality
0.2130000000	in urban environments
0.2130000000	the multi agent
0.2130000000	optimization problem to
0.2130000000	the domain shift
0.2130000000	to end model
0.2130000000	to unseen data
0.2130000000	an attention model
0.2130000000	and deep features
0.2130000000	and unlabeled examples
0.2130000000	the ambient space
0.2130000000	model on
0.2130000000	depth and
0.2130000000	regret and
0.2130000000	s dilemma
0.2130000000	different views
0.2130000000	p and
0.2130000000	from source
0.2130000000	for language
0.2130000000	the permutation
0.2130000000	the mizar
0.2130000000	the augmented
0.2130000000	the kind
0.2130000000	the aggregation
0.2130000000	compromise between
0.2130000000	of reference
0.2130000000	of uncertainty
0.2130000000	of 2d
0.2130000000	of queries
0.2130000000	events in
0.2130000000	to set
0.2130000000	words from
0.2130000000	quantum like
0.2130000000	features with
0.2130000000	quality of
0.2130000000	stopping time
0.2130000000	weaker than
0.2130000000	variables and
0.2130000000	a category
0.2120000000	a number of real world
0.2120000000	on several real world datasets
0.2120000000	a novel deep learning architecture
0.2120000000	the signal to noise ratio
0.2120000000	a branch and bound algorithm
0.2120000000	in many real world applications
0.2120000000	in recent years deep
0.2120000000	of convolutional neural networks
0.2120000000	of convolutional neural network
0.2120000000	a polynomial number of
0.2120000000	using generative adversarial networks
0.2120000000	application areas such as
0.2120000000	desirable properties such as
0.2120000000	the number of observations
0.2120000000	algorithms based on
0.2120000000	to semi supervised
0.2120000000	and conquer strategy
0.2120000000	the probabilistic model
0.2120000000	the synthetic data
0.2120000000	of linear regression
0.2120000000	the cnn model
0.2120000000	the prediction model
0.2120000000	the average performance
0.2120000000	the true class
0.2120000000	the limitation of
0.2120000000	the same number
0.2120000000	the training images
0.2120000000	of stochastic gradients
0.2120000000	based models for
0.2120000000	and virtual reality
0.2120000000	in virtual reality
0.2120000000	positive and unlabeled
0.2120000000	of relational data
0.2120000000	of image retrieval
0.2120000000	of pedestrian detection
0.2120000000	of related tasks
0.2120000000	the recommender system
0.2120000000	the trajectories of
0.2120000000	of conjunctive queries
0.2120000000	to high level
0.2120000000	and real datasets
0.2120000000	and empirically demonstrate
0.2120000000	the target dataset
0.2120000000	pose estimation using
0.2120000000	in sharp contrast
0.2120000000	and global features
0.2120000000	the optimal number
0.2120000000	and density estimation
0.2120000000	the sparse coding
0.2120000000	answering questions about
0.2120000000	two step approach
0.2120000000	each word in
0.2120000000	prior and posterior
0.2120000000	the face image
0.2120000000	the hamming distance
0.2120000000	of gaussian processes
0.2120000000	in probabilistic inference
0.2120000000	the social network
0.2120000000	the face recognition
0.2120000000	the latent factors
0.2120000000	framework based on
0.2120000000	of spoken language
0.2120000000	a posterior distribution
0.2120000000	becomes increasingly important
0.2120000000	the semantic information
0.2120000000	the generative network
0.2120000000	bounding box and
0.2120000000	and gated recurrent
0.2120000000	one shot learning
0.2120000000	one class support
0.2120000000	models trained on
0.2120000000	training and inference
0.2120000000	the modification of
0.2120000000	in unconstrained videos
0.2120000000	the goals of
0.2120000000	of soft constraints
0.2120000000	the actual data
0.2120000000	of noun phrases
0.2120000000	and color images
0.2120000000	the adversarial examples
0.2120000000	the natural gradient
0.2120000000	scale well to
0.2120000000	every pair
0.2120000000	3d convolutional
0.2120000000	best results
0.2120000000	abrupt changes
0.2120000000	leq 1
0.2120000000	k and
0.2120000000	for medical
0.2120000000	on one
0.2120000000	each training
0.2120000000	the textual
0.2120000000	the automated
0.2120000000	the pairwise
0.2120000000	of unsupervised
0.2120000000	events and
0.2120000000	functions for
0.2120000000	an estimator
0.2120000000	functions of
0.2120000000	training very
0.2120000000	good starting
0.2120000000	further analysis
0.2120000000	benefited from
0.2120000000	and multi
0.2120000000	a dirichlet
0.2120000000	a distributed
0.2120000000	1 norm
0.2120000000	per se
0.2120000000	decides whether
0.2110000000	a comprehensive set of experiments
0.2110000000	improvements of up to
0.2110000000	runs in polynomial time
0.2110000000	great success in many
0.2110000000	training and evaluation of
0.2110000000	terms of number of
0.2110000000	inspired by recent work
0.2110000000	the global convergence of
0.2110000000	syntax and semantics of
0.2110000000	solved in polynomial time
0.2110000000	proposed approach on two
0.2110000000	the feature space and
0.2110000000	cifar 10 100 and
0.2110000000	the stochastic gradient descent
0.2110000000	speedups of up to
0.2110000000	inference and learning in
0.2110000000	terms of speed and
0.2110000000	under reasonable assumptions
0.2110000000	to sequence neural
0.2110000000	of metric learning
0.2110000000	of chinese characters
0.2110000000	and energy consumption
0.2110000000	the situation calculus
0.2110000000	the active learning
0.2110000000	the true rank
0.2110000000	the dictionary atoms
0.2110000000	the representation learning
0.2110000000	of activation functions
0.2110000000	of residual networks
0.2110000000	of region based
0.2110000000	of bayesian network
0.2110000000	of bayesian optimization
0.2110000000	focused mainly on
0.2110000000	of basis functions
0.2110000000	the output space
0.2110000000	the label distribution
0.2110000000	in generative adversarial
0.2110000000	and action recognition
0.2110000000	perform poorly on
0.2110000000	of sensor data
0.2110000000	knowledge discovery and
0.2110000000	with importance sampling
0.2110000000	of probability measures
0.2110000000	the estimated model
0.2110000000	random forest and
0.2110000000	shared task on
0.2110000000	in object tracking
0.2110000000	of face detection
0.2110000000	the language model
0.2110000000	thompson sampling for
0.2110000000	of image pixels
0.2110000000	of importance sampling
0.2110000000	of fuzzy sets
0.2110000000	of big data
0.2110000000	of image fusion
0.2110000000	of matrix completion
0.2110000000	an adaptive dictionary
0.2110000000	the image level
0.2110000000	of image compression
0.2110000000	of variational inference
0.2110000000	the word sense
0.2110000000	of image classification
0.2110000000	of synthetic images
0.2110000000	of matrix factorization
0.2110000000	in knowledge based
0.2110000000	a gaussian prior
0.2110000000	to maximum likelihood
0.2110000000	in face recognition
0.2110000000	a medical image
0.2110000000	in human robot
0.2110000000	the word vectors
0.2110000000	computer aided detection
0.2110000000	in logic programming
0.2110000000	on riemannian manifolds
0.2110000000	of image segmentation
0.2110000000	the kernel distance
0.2110000000	the discriminative model
0.2110000000	the objective functions
0.2110000000	the inference algorithm
0.2110000000	the inference network
0.2110000000	the image retrieval
0.2110000000	the task specific
0.2110000000	great potential for
0.2110000000	of reservoir computing
0.2110000000	of convex optimization
0.2110000000	of gradient descent
0.2110000000	of dynamic scenes
0.2110000000	using synthetic data
0.2110000000	of covering based
0.2110000000	of conditional independence
0.2110000000	of real numbers
0.2110000000	as deep learning
0.2110000000	hidden states in
0.2110000000	of real images
0.2110000000	to text systems
0.2110000000	the speech recognition
0.2110000000	and video processing
0.2110000000	to high resolution
0.2110000000	data and in
0.2110000000	to model long
0.2110000000	the tracking problem
0.2110000000	of knowledge graphs
0.2110000000	the target set
0.2110000000	of brain tumor
0.2110000000	with genetic algorithm
0.2110000000	the target network
0.2110000000	on word similarity
0.2110000000	and target data
0.2110000000	the gradient based
0.2110000000	of semantic change
0.2110000000	the classification model
0.2110000000	and pascal voc
0.2110000000	and image segmentation
0.2110000000	of latent features
0.2110000000	the cost sensitive
0.2110000000	in weakly supervised
0.2110000000	a convex set
0.2110000000	and word level
0.2110000000	the optimal regret
0.2110000000	of latent representations
0.2110000000	and target domain
0.2110000000	of visual quality
0.2110000000	a deep reinforcement
0.2110000000	the outcomes of
0.2110000000	a low resolution
0.2110000000	a humanoid robot
0.2110000000	for pixel level
0.2110000000	the query image
0.2110000000	the knowledge graph
0.2110000000	the light field
0.2110000000	the structure learning
0.2110000000	the expected cost
0.2110000000	the generated image
0.2110000000	the general model
0.2110000000	the inverse covariance
0.2110000000	the super resolution
0.2110000000	for saliency detection
0.2110000000	of particle swarm
0.2110000000	of adversarial examples
0.2110000000	of online learning
0.2110000000	and motion information
0.2110000000	of object detectors
0.2110000000	of kernel methods
0.2110000000	of statistical learning
0.2110000000	the neural machine
0.2110000000	of web pages
0.2110000000	of evolutionary algorithms
0.2110000000	the source language
0.2110000000	the actor critic
0.2110000000	a word based
0.2110000000	and semantic information
0.2110000000	a word sense
0.2110000000	of web services
0.2110000000	and topic modeling
0.2110000000	the test dataset
0.2110000000	the learned features
0.2110000000	this loss function
0.2110000000	the convolutional layer
0.2110000000	the latent features
0.2110000000	the pairwise similarity
0.2110000000	the machine translation
0.2110000000	the state action
0.2110000000	two case studies
0.2110000000	models and to
0.2110000000	of data augmentation
0.2110000000	for probabilistic programming
0.2110000000	to label noise
0.2110000000	the proposed sparse
0.2110000000	of probabilistic reasoning
0.2110000000	of data collection
0.2110000000	this data set
0.2110000000	in constraint programming
0.2110000000	the projection of
0.2110000000	a sparse set
0.2110000000	3d face recognition
0.2110000000	a point cloud
0.2110000000	a sparse matrix
0.2110000000	a stochastic version
0.2110000000	the local feature
0.2110000000	generalization error in
0.2110000000	for graph based
0.2110000000	these data sets
0.2110000000	for word sense
0.2110000000	for solving linear
0.2110000000	the completion of
0.2110000000	the frobenius norm
0.2110000000	the local descriptors
0.2110000000	the margin distribution
0.2110000000	the proposed learning
0.2110000000	the proposed classifier
0.2110000000	the proposed controller
0.2110000000	the proposed objective
0.2110000000	the proposed kernel
0.2110000000	the proposed face
0.2110000000	the proposed feature
0.2110000000	the proposed saliency
0.2110000000	first order stationary
0.2110000000	first order theory
0.2110000000	the network output
0.2110000000	of word representations
0.2110000000	the prior distribution
0.2110000000	the original training
0.2110000000	batch normalization and
0.2110000000	of naive bayes
0.2110000000	the belief state
0.2110000000	a target domain
0.2110000000	a speech recognition
0.2110000000	and pixel level
0.2110000000	the problem structure
0.2110000000	for image understanding
0.2110000000	a light field
0.2110000000	the evolutionary algorithm
0.2110000000	dirichlet allocation and
0.2110000000	the low resolution
0.2110000000	the dual problem
0.2110000000	the input layer
0.2110000000	for video captioning
0.2110000000	two convolutional neural
0.2110000000	in target domain
0.2110000000	of machine translation
0.2110000000	of human motion
0.2110000000	of human visual
0.2110000000	of intelligent agents
0.2110000000	and bound algorithm
0.2110000000	in crowded scenes
0.2110000000	approach of using
0.2110000000	of handwritten characters
0.2110000000	and bound search
0.2110000000	the pose estimation
0.2110000000	early diagnosis of
0.2110000000	problem faced by
0.2110000000	on training data
0.2110000000	the segmentation accuracy
0.2110000000	for depth estimation
0.2110000000	the decision problem
0.2110000000	the segmentation results
0.2110000000	the segmentation network
0.2110000000	the distance from
0.2110000000	the distance function
0.2110000000	the multi layer
0.2110000000	for human robot
0.2110000000	for outlier detection
0.2110000000	on adversarial examples
0.2110000000	for visual reasoning
0.2110000000	network topology and
0.2110000000	of nonmonotonic reasoning
0.2110000000	to end framework
0.2110000000	to end network
0.2110000000	the adversarial loss
0.2110000000	the art subspace
0.2110000000	to multi agent
0.2110000000	with time windows
0.2110000000	and low resolution
0.2110000000	and low level
0.2110000000	of light field
0.2110000000	for event recognition
0.2110000000	of video based
0.2110000000	similarity measure for
0.2110000000	of speech signals
0.2110000000	the underlying matrix
0.2110000000	the metric learning
0.2110000000	the relative distance
0.2110000000	the reference image
0.2110000000	the deep feature
0.2110000000	the model distribution
0.2110000000	summaries for
0.2110000000	dnns and
0.2110000000	sub sampled
0.2110000000	urgent need
0.2110000000	both theoretical
0.2110000000	energy for
0.2110000000	program to
0.2110000000	walk and
0.2110000000	sensors such
0.2110000000	best practices
0.2110000000	ontology with
0.2110000000	node to
0.2110000000	genetic and
0.2110000000	order n
0.2110000000	mu and
0.2110000000	elm and
0.2110000000	2600 games
0.2110000000	the overlapping
0.2110000000	plans and
0.2110000000	net and
0.2110000000	matrix from
0.2110000000	the initial
0.2110000000	mainly rely
0.2110000000	the verification
0.2110000000	the symmetric
0.2110000000	piece of
0.2110000000	the outcomes
0.2110000000	200 2011
0.2110000000	strategies to
0.2110000000	subspaces and
0.2110000000	defenses against
0.2110000000	information of
0.2110000000	feature with
0.2110000000	matroids and
0.2110000000	estimator in
0.2110000000	paper to
0.2110000000	of subspaces
0.2110000000	subspace to
0.2110000000	index of
0.2110000000	mf and
0.2110000000	transformations such
0.2110000000	concepts in
0.2110000000	pose of
0.2110000000	these features
0.2110000000	utility and
0.2110000000	based system
0.2110000000	pose from
0.2110000000	largely ignored
0.2110000000	objects in
0.2110000000	quantum computer
0.2110000000	lattice of
0.2110000000	6 month
0.2110000000	tensor of
0.2110000000	core part
0.2110000000	translation with
0.2110000000	bp and
0.2110000000	entailment in
0.2110000000	spectra of
0.2110000000	time step
0.2110000000	images with
0.2110000000	patches for
0.2110000000	arrive at
0.2110000000	and model
0.2110000000	intelligence or
0.2110000000	times d
0.2110000000	a feedback
0.2110000000	cooperation in
0.2110000000	a transfer
0.2110000000	variables x
0.2110000000	a dissimilarity
0.2110000000	generalization in
0.2100000000	an end to end deep learning
0.2100000000	a union of low dimensional subspaces
0.2100000000	an end to end neural network
0.2100000000	an end to end learning framework
0.2100000000	the field of natural language processing
0.2100000000	both simulated and real world data
0.2100000000	the alternating direction method of multipliers
0.2100000000	a novel deep neural network architecture
0.2100000000	the training of deep neural networks
0.2100000000	trained end to end on
0.2100000000	the recurrent neural network
0.2100000000	application of deep learning
0.2100000000	faster than state of
0.2100000000	a method for estimating
0.2100000000	similarities and differences between
0.2100000000	of generative adversarial networks
0.2100000000	found at https github.com
0.2100000000	a sparse representation of
0.2100000000	and support vector machines
0.2100000000	and natural language processing
0.2100000000	the convergence properties of
0.2100000000	the 3d structure of
0.2100000000	received much attention in
0.2100000000	of multiple kernel
0.2100000000	3d object recognition
0.2100000000	with overwhelming probability
0.2100000000	the changes of
0.2100000000	topic models in
0.2100000000	problems with non
0.2100000000	the ising model
0.2100000000	analysis of data
0.2100000000	the dependence structure
0.2100000000	the feature selection
0.2100000000	the hidden units
0.2100000000	the tree structure
0.2100000000	the data space
0.2100000000	the data driven
0.2100000000	the data term
0.2100000000	one to many
0.2100000000	real data in
0.2100000000	with provable guarantees
0.2100000000	the output sequence
0.2100000000	an em algorithm
0.2100000000	the training loss
0.2100000000	the information provided
0.2100000000	a color image
0.2100000000	with negligible loss
0.2100000000	technique based on
0.2100000000	as sentiment analysis
0.2100000000	of streaming data
0.2100000000	the image reconstruction
0.2100000000	to jointly estimate
0.2100000000	the kernel function
0.2100000000	the group level
0.2100000000	the word embeddings
0.2100000000	the image data
0.2100000000	the previous iteration
0.2100000000	s eye view
0.2100000000	number of mistakes
0.2100000000	of deep learning
0.2100000000	of mutual information
0.2100000000	the causal graph
0.2100000000	the error rates
0.2100000000	and object detection
0.2100000000	the biomedical domain
0.2100000000	the formal semantics
0.2100000000	the cityscapes dataset
0.2100000000	the encoding of
0.2100000000	with sample complexity
0.2100000000	a convex function
0.2100000000	a cnn model
0.2100000000	a covariance matrix
0.2100000000	the search algorithm
0.2100000000	a language independent
0.2100000000	a high spatial
0.2100000000	the optimal threshold
0.2100000000	the classification problem
0.2100000000	from multiple views
0.2100000000	for multi view
0.2100000000	for symbolic regression
0.2100000000	of submodular functions
0.2100000000	for research purposes
0.2100000000	recent state of
0.2100000000	of optimization problems
0.2100000000	to compactly represent
0.2100000000	an active region
0.2100000000	the meanings of
0.2100000000	the constraint set
0.2100000000	the weight vector
0.2100000000	the temporal information
0.2100000000	the test image
0.2100000000	the neural structure
0.2100000000	the neural networks
0.2100000000	of topic models
0.2100000000	the proposed loss
0.2100000000	the high order
0.2100000000	the proposed graph
0.2100000000	a tuning parameter
0.2100000000	a companion paper
0.2100000000	the semantic representation
0.2100000000	time critical applications
0.2100000000	a daunting task
0.2100000000	or higher order
0.2100000000	the semantic similarity
0.2100000000	the learning model
0.2100000000	the high frequency
0.2100000000	the semantic space
0.2100000000	the null hypothesis
0.2100000000	the local optima
0.2100000000	the proposed sampling
0.2100000000	the input text
0.2100000000	for image compression
0.2100000000	the spectral clustering
0.2100000000	the pixel wise
0.2100000000	the clustering algorithm
0.2100000000	the input sequence
0.2100000000	this extended abstract
0.2100000000	recognition of human
0.2100000000	for edge detection
0.2100000000	all data points
0.2100000000	by significant margins
0.2100000000	features for classification
0.2100000000	by large margins
0.2100000000	the multi view
0.2100000000	a vision based
0.2100000000	next frame prediction
0.2100000000	large number of
0.2100000000	in image registration
0.2100000000	the noisy image
0.2100000000	for metric learning
0.2100000000	with low resolution
0.2100000000	for higher order
0.2100000000	algorithm for multi
0.2100000000	the model class
0.2100000000	of cross domain
0.2100000000	to end cnn
0.2100000000	the graph nodes
0.2100000000	the current image
0.2100000000	and face recognition
0.2100000000	of low rank
0.2100000000	the model space
0.2100000000	the model trained
0.2100000000	the reinforcement learning
0.2100000000	the deep networks
0.2100000000	the natural image
0.2100000000	dependency parsing with
0.2100000000	k space data
0.2100000000	empirical evidence of
0.2100000000	layer to
0.2100000000	inputs such
0.2100000000	style and
0.2100000000	face from
0.2100000000	image by
0.2100000000	2 epsilon
0.2100000000	stage i
0.2100000000	minimum and
0.2100000000	types to
0.2100000000	each pixel
0.2100000000	theta and
0.2100000000	workshop of
0.2100000000	y 1
0.2100000000	the previous
0.2100000000	the np
0.2100000000	the variation
0.2100000000	not suitable
0.2100000000	the synthesized
0.2100000000	the united
0.2100000000	local and
0.2100000000	methods of
0.2100000000	speech system
0.2100000000	path with
0.2100000000	classes to
0.2100000000	fundamentally different
0.2100000000	color of
0.2100000000	of adversarial
0.2100000000	of diophantine
0.2100000000	primarily due
0.2100000000	matroid and
0.2100000000	lasso with
0.2100000000	quantum and
0.2100000000	dialogue and
0.2100000000	to model
0.2100000000	pi and
0.2100000000	entailment and
0.2100000000	margin and
0.2100000000	images for
0.2100000000	space in
0.2100000000	cca to
0.2100000000	text on
0.2100000000	non expert
0.2100000000	activity by
0.2100000000	track and
0.2100000000	logic of
0.2100000000	decomposition by
0.2100000000	a crowd
0.2100000000	a tuning
0.2100000000	a tutorial
0.2100000000	vehicle and
0.2090000000	a variety of machine learning
0.2090000000	such as latent dirichlet allocation
0.2090000000	a number of benchmark datasets
0.2090000000	such as recurrent neural networks
0.2090000000	a new neural network architecture
0.2090000000	in terms of solution quality
0.2090000000	in terms of prediction accuracy
0.2090000000	a novel convolutional neural network
0.2090000000	on three real world datasets
0.2090000000	a non convex optimization problem
0.2090000000	the era of big data
0.2090000000	a variety of data sets
0.2090000000	such as stochastic gradient descent
0.2090000000	the field of machine learning
0.2090000000	in terms of classification accuracy
0.2090000000	the application of deep learning
0.2090000000	in machine learning and statistics
0.2090000000	computer vision and pattern recognition
0.2090000000	such as deep neural networks
0.2090000000	such as principal component analysis
0.2090000000	computer vision and image processing
0.2090000000	an estimation of distribution algorithm
0.2090000000	such as convolutional neural networks
0.2090000000	the power of deep learning
0.2090000000	a variety of real world
0.2090000000	a new convolutional neural network
0.2090000000	the application of machine learning
0.2090000000	such as support vector machines
0.2090000000	in many natural language processing
0.2090000000	a fully end to end
0.2090000000	an extensive set of experiments
0.2090000000	a novel neural network architecture
0.2090000000	a unified end to end
0.2090000000	the development of deep learning
0.2090000000	a low dimensional representation
0.2090000000	and in particular of
0.2090000000	the art methods such
0.2090000000	techniques in order to
0.2090000000	neural network model for
0.2090000000	clustering algorithm based on
0.2090000000	network as well as
0.2090000000	a fully convolutional neural
0.2090000000	the deep convolutional neural
0.2090000000	the proposed method significantly
0.2090000000	the proposed approach significantly
0.2090000000	the proposed approach compared
0.2090000000	and long short term
0.2090000000	in real world settings
0.2090000000	for non convex optimization
0.2090000000	convergence rate of o
0.2090000000	and support vector machine
0.2090000000	with long short term
0.2090000000	the pascal voc 2012
0.2090000000	efficient algorithm for solving
0.2090000000	an open source implementation
0.2090000000	many natural language processing
0.2090000000	a semantic network
0.2090000000	method for classification
0.2090000000	a content based
0.2090000000	the policy gradient
0.2090000000	trained with large
0.2090000000	of observed variables
0.2090000000	learning as well
0.2090000000	simulation results show
0.2090000000	a mobile phone
0.2090000000	features and to
0.2090000000	thousands of variables
0.2090000000	many important applications
0.2090000000	on real data
0.2090000000	the pareto optimal
0.2090000000	the frequencies of
0.2090000000	number of nodes
0.2090000000	systems need to
0.2090000000	syntactic semantic and
0.2090000000	data and to
0.2090000000	number of labels
0.2090000000	yet effective method
0.2090000000	the dimensions of
0.2090000000	a query image
0.2090000000	in social networks
0.2090000000	the open source
0.2090000000	relatively little attention
0.2090000000	with weak supervision
0.2090000000	the learned metric
0.2090000000	the source image
0.2090000000	sun rgb d
0.2090000000	of probabilistic logic
0.2090000000	a domain independent
0.2090000000	each convolutional layer
0.2090000000	the proposed measure
0.2090000000	one dimensional signals
0.2090000000	content such as
0.2090000000	a multivariate gaussian
0.2090000000	several strong baselines
0.2090000000	for stochastic gradient
0.2090000000	non linear activation
0.2090000000	sets of points
0.2090000000	on standard benchmarks
0.2090000000	to end optimization
0.2090000000	dataset and on
0.2090000000	log n k
0.2090000000	log n for
0.2090000000	the model checking
0.2090000000	expected value of
0.2090000000	cd and
0.2090000000	free will
0.2090000000	gram and
0.2090000000	codes to
0.2090000000	interactions for
0.2090000000	depth two
0.2090000000	inputs or
0.2090000000	arises due
0.2090000000	web to
0.2090000000	es and
0.2090000000	sentence by
0.2090000000	word as
0.2090000000	user for
0.2090000000	norm to
0.2090000000	word in
0.2090000000	user in
0.2090000000	user specified
0.2090000000	integrated system
0.2090000000	bias on
0.2090000000	samples and
0.2090000000	users or
0.2090000000	rain and
0.2090000000	frames per
0.2090000000	critic and
0.2090000000	screening for
0.2090000000	dl and
0.2090000000	liver and
0.2090000000	asp in
0.2090000000	language to
0.2090000000	machine to
0.2090000000	phase to
0.2090000000	person with
0.2090000000	points and
0.2090000000	image on
0.2090000000	sequence by
0.2090000000	regret in
0.2090000000	manifold to
0.2090000000	image s
0.2090000000	image de
0.2090000000	sequence given
0.2090000000	resolution for
0.2090000000	queries of
0.2090000000	person in
0.2090000000	mesh and
0.2090000000	resolution via
0.2090000000	cancer in
0.2090000000	argumentation and
0.2090000000	classifiers such
0.2090000000	temperature of
0.2090000000	bayes for
0.2090000000	sketch to
0.2090000000	domain into
0.2090000000	previous two
0.2090000000	fcn to
0.2090000000	svm to
0.2090000000	beta and
0.2090000000	landscapes with
0.2090000000	dispersion of
0.2090000000	plans by
0.2090000000	reviews to
0.2090000000	the f
0.2090000000	dropout for
0.2090000000	norms with
0.2090000000	norms for
0.2090000000	the safety
0.2090000000	net on
0.2090000000	propagation to
0.2090000000	tracking as
0.2090000000	colors in
0.2090000000	the arts
0.2090000000	clusters in
0.2090000000	the stream
0.2090000000	net to
0.2090000000	the individual
0.2090000000	ann and
0.2090000000	block and
0.2090000000	the algebraic
0.2090000000	the enhancement
0.2090000000	nmf and
0.2090000000	items of
0.2090000000	series as
0.2090000000	necessary condition
0.2090000000	iteration and
0.2090000000	query to
0.2090000000	pooling to
0.2090000000	attack to
0.2090000000	causal and
0.2090000000	uncertainty by
0.2090000000	patients to
0.2090000000	speech in
0.2090000000	speech using
0.2090000000	play with
0.2090000000	series in
0.2090000000	rule and
0.2090000000	color in
0.2090000000	items as
0.2090000000	sgd to
0.2090000000	lambda and
0.2090000000	peer to
0.2090000000	sentiment of
0.2090000000	sensing for
0.2090000000	tweets in
0.2090000000	protein and
0.2090000000	patterns to
0.2090000000	lstm to
0.2090000000	art with
0.2090000000	shape from
0.2090000000	of event
0.2090000000	ad and
0.2090000000	privacy in
0.2090000000	of students
0.2090000000	coding to
0.2090000000	aggregates and
0.2090000000	sentiment in
0.2090000000	clustering as
0.2090000000	vqa and
0.2090000000	stability for
0.2090000000	kernel on
0.2090000000	kernel to
0.2090000000	kernel as
0.2090000000	edge between
0.2090000000	shape as
0.2090000000	stance in
0.2090000000	admm to
0.2090000000	admm and
0.2090000000	clips and
0.2090000000	decoder and
0.2090000000	nets to
0.2090000000	noise in
0.2090000000	ir and
0.2090000000	class c
0.2090000000	parsing system
0.2090000000	class by
0.2090000000	pose by
0.2090000000	based k
0.2090000000	rl to
0.2090000000	parameter less
0.2090000000	lasso in
0.2090000000	words such
0.2090000000	bags and
0.2090000000	tensor and
0.2090000000	selection to
0.2090000000	rnns to
0.2090000000	translation in
0.2090000000	graph by
0.2090000000	cca and
0.2090000000	ensemble to
0.2090000000	losses to
0.2090000000	epsilon and
0.2090000000	dataset also
0.2090000000	fusion and
0.2090000000	homography and
0.2090000000	similarity for
0.2090000000	graph s
0.2090000000	epsilon for
0.2090000000	considerable interest
0.2090000000	nmt and
0.2090000000	cluster to
0.2090000000	volatility of
0.2090000000	computing to
0.2090000000	gan and
0.2090000000	gan in
0.2090000000	rules by
0.2090000000	intelligence in
0.2090000000	authorship of
0.2090000000	link and
0.2090000000	games such
0.2090000000	belief of
0.2090000000	label in
0.2090000000	predictions of
0.2090000000	minimal changes
0.2090000000	intelligence of
0.2090000000	ai system
0.2090000000	video to
0.2090000000	encoder in
0.2090000000	faces to
0.2090000000	design by
0.2090000000	variables corresponding
0.2090000000	loss to
0.2090000000	story and
0.2090000000	saliency and
0.2090000000	vehicle to
0.2090000000	or equivalently
0.2090000000	detection to
0.2090000000	tight up
0.2090000000	gp and
0.2090000000	gaze and
0.2090000000	convnets to
0.2090000000	water and
0.2090000000	smt and
0.2080000000	synthetic data as well as on
0.2080000000	in computer vision and machine learning
0.2080000000	in machine learning and computer vision
0.2080000000	including but not limited to
0.2080000000	variety of applications such as
0.2080000000	compared to several state of
0.2080000000	by orders of magnitude
0.2080000000	shown to lead to
0.2080000000	a two stage approach
0.2080000000	both theoretical and practical
0.2080000000	pros and cons of
0.2080000000	markov decision processes with
0.2080000000	the limitations of existing
0.2080000000	in order to avoid
0.2080000000	social media such as
0.2080000000	shown to perform well
0.2080000000	k means clustering method
0.2080000000	the large number of
0.2080000000	in many real life
0.2080000000	faster than real time
0.2080000000	similar in spirit to
0.2080000000	and human computer interaction
0.2080000000	the potential to provide
0.2080000000	trained and tested on
0.2080000000	on two different datasets
0.2080000000	many computer vision problems
0.2080000000	and recurrent neural networks
0.2080000000	simple to implement and
0.2080000000	recent years due to
0.2080000000	a mixture of gaussians
0.2080000000	the results also show
0.2080000000	machine learning such as
0.2080000000	a factor of 2
0.2080000000	problem of learning to
0.2080000000	for training and testing
0.2080000000	attracted much attention in
0.2080000000	part of speech tags
0.2080000000	suitable for real time
0.2080000000	contrast to prior work
0.2080000000	the ability to capture
0.2080000000	a new algorithm called
0.2080000000	rates of convergence for
0.2080000000	for classification and regression
0.2080000000	number of non zero
0.2080000000	design and implementation of
0.2080000000	a two step approach
0.2080000000	so as to provide
0.2080000000	in many practical applications
0.2080000000	a general class of
0.2080000000	provide new insights into
0.2080000000	to very large datasets
0.2080000000	challenging problem due to
0.2080000000	two publicly available datasets
0.2080000000	capable of dealing with
0.2080000000	however in many cases
0.2080000000	challenging task because of
0.2080000000	challenging task due to
0.2080000000	contrast to previous work
0.2080000000	using simulated and real
0.2080000000	in theory and practice
0.2080000000	art performance on many
0.2080000000	an intelligent agent
0.2080000000	and energy efficiency
0.2080000000	continuous time and
0.2080000000	or on par
0.2080000000	with probability 1
0.2080000000	local minima of
0.2080000000	in three ways
0.2080000000	this in mind
0.2080000000	a one pass
0.2080000000	a one class
0.2080000000	using observational data
0.2080000000	and challenging problem
0.2080000000	n best list
0.2080000000	the self organising
0.2080000000	different time scales
0.2080000000	a digital camera
0.2080000000	a three dimensional
0.2080000000	the alternating minimization
0.2080000000	the viewpoint of
0.2080000000	faster convergence than
0.2080000000	model consists of
0.2080000000	to simultaneously learn
0.2080000000	from still images
0.2080000000	the e step
0.2080000000	an n dimensional
0.2080000000	a self supervised
0.2080000000	a process of
0.2080000000	a parameter server
0.2080000000	under certain assumptions
0.2080000000	computational efficiency and
0.2080000000	features of human
0.2080000000	theoretical guarantees for
0.2080000000	a use case
0.2080000000	for text categorization
0.2080000000	vector representations of
0.2080000000	models of language
0.2080000000	with much fewer
0.2080000000	the decision boundary
0.2080000000	a least square
0.2080000000	and orientation of
0.2080000000	an alternating minimization
0.2080000000	with function approximation
0.2080000000	the deep features
0.2080000000	regret bound of
0.2080000000	layer on
0.2080000000	route for
0.2080000000	goal to
0.2080000000	demonstration and
0.2080000000	this mechanism
0.2080000000	sentence to
0.2080000000	every iteration
0.2080000000	constraints and
0.2080000000	ontology to
0.2080000000	operator to
0.2080000000	face or
0.2080000000	question given
0.2080000000	image such
0.2080000000	image given
0.2080000000	operator s
0.2080000000	game and
0.2080000000	person and
0.2080000000	preferences as
0.2080000000	policy to
0.2080000000	until convergence
0.2080000000	tissue in
0.2080000000	law and
0.2080000000	thought and
0.2080000000	for recognition
0.2080000000	control by
0.2080000000	test to
0.2080000000	plans with
0.2080000000	norms and
0.2080000000	embeddings for
0.2080000000	matrix x
0.2080000000	modality and
0.2080000000	the morphology
0.2080000000	the epidemic
0.2080000000	heuristic to
0.2080000000	the iterative
0.2080000000	x f
0.2080000000	the compositional
0.2080000000	the unknown
0.2080000000	the failure
0.2080000000	dropout in
0.2080000000	filter in
0.2080000000	speech with
0.2080000000	ll n
0.2080000000	detectors in
0.2080000000	iteration to
0.2080000000	rule with
0.2080000000	play and
0.2080000000	embedding by
0.2080000000	aspect and
0.2080000000	plagued by
0.2080000000	nodes in
0.2080000000	pca with
0.2080000000	probably approximately
0.2080000000	action in
0.2080000000	art by
0.2080000000	complexity by
0.2080000000	matching on
0.2080000000	matching as
0.2080000000	motion in
0.2080000000	coding with
0.2080000000	patterns and
0.2080000000	motion as
0.2080000000	motion from
0.2080000000	full body
0.2080000000	clustering under
0.2080000000	of spatial
0.2080000000	tweets to
0.2080000000	augmentation in
0.2080000000	graphs by
0.2080000000	edge in
0.2080000000	diagram and
0.2080000000	based value
0.2080000000	proven useful
0.2080000000	consistency to
0.2080000000	concepts using
0.2080000000	distance in
0.2080000000	class as
0.2080000000	step and
0.2080000000	an end
0.2080000000	sarcasm in
0.2080000000	margin in
0.2080000000	questions to
0.2080000000	translation for
0.2080000000	compositional and
0.2080000000	belief or
0.2080000000	activations to
0.2080000000	gamma and
0.2080000000	relation and
0.2080000000	scene and
0.2080000000	with n
0.2080000000	goals to
0.2080000000	quantization and
0.2080000000	probability p
0.2080000000	metric from
0.2080000000	lda for
0.2080000000	in online
0.2080000000	demonstrations and
0.2080000000	a regression
0.2080000000	a regret
0.2080000000	a result
0.2080000000	times k
0.2080000000	forgetting in
0.2080000000	windows in
0.2080000000	rkhs and
0.2070000000	for many computer vision tasks
0.2070000000	in time and space
0.2070000000	of 3d point clouds
0.2070000000	to use deep learning
0.2070000000	various computer vision tasks
0.2070000000	more and more attention
0.2070000000	on three real world
0.2070000000	vector machine svm and
0.2070000000	the precision and recall
0.2070000000	the condition number of
0.2070000000	both regression and classification
0.2070000000	the proposed method outperforms
0.2070000000	s ability to learn
0.2070000000	both 2d and 3d
0.2070000000	effectiveness and efficiency of
0.2070000000	the ability to identify
0.2070000000	comparable with state of
0.2070000000	performance of state of
0.2070000000	accuracy and efficiency of
0.2070000000	the speed and accuracy
0.2070000000	more robust to noise
0.2070000000	such as image segmentation
0.2070000000	speed and accuracy of
0.2070000000	of questions and answers
0.2070000000	a new technique called
0.2070000000	method for segmentation
0.2070000000	non rigid registration
0.2070000000	the feature learning
0.2070000000	natural language and
0.2070000000	learning process for
0.2070000000	the object detection
0.2070000000	the u net
0.2070000000	the dictionary learning
0.2070000000	models for image
0.2070000000	of functional data
0.2070000000	the semeval 2016
0.2070000000	a computer program
0.2070000000	of labeled data
0.2070000000	the detection performance
0.2070000000	the issues of
0.2070000000	3d shapes from
0.2070000000	computer vision problems
0.2070000000	the image features
0.2070000000	a convergence rate
0.2070000000	a pixel level
0.2070000000	the spatial resolution
0.2070000000	in two ways
0.2070000000	the polarity of
0.2070000000	for online learning
0.2070000000	markov chain and
0.2070000000	of local search
0.2070000000	to adversarial examples
0.2070000000	time series datasets
0.2070000000	the noise model
0.2070000000	number of filters
0.2070000000	ahead of time
0.2070000000	a much lower
0.2070000000	a much smaller
0.2070000000	a natural way
0.2070000000	framework for low
0.2070000000	the minimax rate
0.2070000000	a three layer
0.2070000000	for multi target
0.2070000000	the depth map
0.2070000000	the human user
0.2070000000	the learned feature
0.2070000000	the inner product
0.2070000000	the raw image
0.2070000000	hybrid algorithm for
0.2070000000	the learning algorithms
0.2070000000	recent success of
0.2070000000	a relatively simple
0.2070000000	the base classifiers
0.2070000000	a self organizing
0.2070000000	the positions of
0.2070000000	identification based on
0.2070000000	minimization problem in
0.2070000000	the edge of
0.2070000000	the transfer learning
0.2070000000	as particular cases
0.2070000000	empirical results show
0.2070000000	detectors based on
0.2070000000	the i vector
0.2070000000	the linear model
0.2070000000	time bayesian networks
0.2070000000	of word meaning
0.2070000000	a target language
0.2070000000	1 norm regularization
0.2070000000	the input variables
0.2070000000	and stl 10
0.2070000000	the inversion of
0.2070000000	the online setting
0.2070000000	of human emotions
0.2070000000	on multi core
0.2070000000	performs well in
0.2070000000	a nearly optimal
0.2070000000	two recurrent neural
0.2070000000	the art action
0.2070000000	to binary classification
0.2070000000	off policy evaluation
0.2070000000	emotion recognition in
0.2070000000	and related fields
0.2070000000	and knowledge representation
0.2070000000	word representations from
0.2070000000	numerical experiments show
0.2070000000	task of learning
0.2070000000	and recurrent networks
0.2070000000	the co occurrence
0.2070000000	the covariance function
0.2070000000	the well established
0.2070000000	the art baselines
0.2070000000	accuracy of
0.2070000000	tree in
0.2070000000	model with
0.2070000000	word with
0.2070000000	samples or
0.2070000000	network with
0.2070000000	machine in
0.2070000000	as semi
0.2070000000	queries using
0.2070000000	before feeding
0.2070000000	polynomial in
0.2070000000	downloaded from
0.2070000000	hindered by
0.2070000000	reviews of
0.2070000000	the aixi
0.2070000000	the car
0.2070000000	subspaces with
0.2070000000	of knee
0.2070000000	distinction between
0.2070000000	attacks and
0.2070000000	depends upon
0.2070000000	an outlier
0.2070000000	lattice and
0.2070000000	project to
0.2070000000	dataset of
0.2070000000	optimal in
0.2070000000	belief in
0.2070000000	and online
0.2070000000	a content
0.2070000000	a camera
0.2070000000	chaotic time
0.2060000000	of deep learning in computer vision
0.2060000000	in image processing and computer vision
0.2060000000	long short term memory lstm and
0.2060000000	in contrast to most existing
0.2060000000	and part of speech tagging
0.2060000000	by several orders of magnitude
0.2060000000	the rate of convergence of
0.2060000000	of deep neural networks dnn
0.2060000000	in many computer vision applications
0.2060000000	the number of neurons in
0.2060000000	as well as real world
0.2060000000	on mnist and cifar 10
0.2060000000	many applications in computer vision
0.2060000000	more efficient and scalable
0.2060000000	classification object detection and
0.2060000000	surge of interest in
0.2060000000	both training and inference
0.2060000000	a general model of
0.2060000000	both training and testing
0.2060000000	a publicly available dataset
0.2060000000	this problem by introducing
0.2060000000	both forward and backward
0.2060000000	on several public datasets
0.2060000000	both indoor and outdoor
0.2060000000	both supervised and unsupervised
0.2060000000	the training and test
0.2060000000	this problem by proposing
0.2060000000	on three different datasets
0.2060000000	this type of problems
0.2060000000	for real time applications
0.2060000000	an efficient and robust
0.2060000000	to train and evaluate
0.2060000000	an efficient and effective
0.2060000000	the model to learn
0.2060000000	and machine learning algorithms
0.2060000000	to train and test
0.2060000000	the development and evaluation
0.2060000000	the potential to improve
0.2060000000	a fast and robust
0.2060000000	a fast and efficient
0.2060000000	many computer vision tasks
0.2060000000	a fast and accurate
0.2060000000	for empirical risk minimization
0.2060000000	a method to improve
0.2060000000	a method to detect
0.2060000000	a method to perform
0.2060000000	a method to generate
0.2060000000	for few shot learning
0.2060000000	time and space complexities
0.2060000000	and second order statistics
0.2060000000	the self organizing map
0.2060000000	time and space complexity
0.2060000000	for self driving cars
0.2060000000	the time and space
0.2060000000	such as stochastic gradient
0.2060000000	a novel deep architecture
0.2060000000	0 1 knapsack problem
0.2060000000	however most existing methods
0.2060000000	both spatial and temporal
0.2060000000	the k nearest neighbors
0.2060000000	both local and global
0.2060000000	the mean square error
0.2060000000	of accuracy and computational
0.2060000000	a well studied problem
0.2060000000	a divide and conquer
0.2060000000	in many nlp tasks
0.2060000000	a simple yet efficient
0.2060000000	a simple and fast
0.2060000000	on artificial and real
0.2060000000	in many machine learning
0.2060000000	on two data sets
0.2060000000	the objective function of
0.2060000000	a two step procedure
0.2060000000	with only image level
0.2060000000	so as to improve
0.2060000000	so as to minimize
0.2060000000	the forward and backward
0.2060000000	the l 1 norm
0.2060000000	one order of magnitude
0.2060000000	in science and engineering
0.2060000000	between exploration and exploitation
0.2060000000	on various datasets demonstrate
0.2060000000	on various real world
0.2060000000	both quantitative and qualitative
0.2060000000	such as natural language
0.2060000000	both artificial and real
0.2060000000	a wealth of information
0.2060000000	both linear and nonlinear
0.2060000000	both discrete and continuous
0.2060000000	a proof of principle
0.2060000000	in mean average precision
0.2060000000	an effective and efficient
0.2060000000	model based on
0.2060000000	variational inference for
0.2060000000	an online fashion
0.2060000000	balance exploration and
0.2060000000	not too large
0.2060000000	the vehicle s
0.2060000000	huge amounts of
0.2060000000	two sub networks
0.2060000000	methods based on
0.2060000000	outperform state of
0.2060000000	inner product search
0.2060000000	top 1 accuracy
0.2060000000	vast amounts of
0.2060000000	the correspondence between
0.2060000000	active area of
0.2060000000	the wisdom of
0.2060000000	in still images
0.2060000000	building blocks for
0.2060000000	the transformation of
0.2060000000	knowledge representation and
0.2060000000	an optimal solution
0.2060000000	for propositional logic
0.2060000000	every time step
0.2060000000	a challenge for
0.2060000000	a side effect
0.2060000000	the integrity of
0.2060000000	a three step
0.2060000000	in certain cases
0.2060000000	for saliency prediction
0.2060000000	on cifar 100
0.2060000000	zero one loss
0.2060000000	domain knowledge and
0.2060000000	variable selection and
0.2060000000	mean and covariance
0.2060000000	neural networks for
0.2060000000	and cifar 10
0.2060000000	different but related
0.2060000000	known and unknown
0.2060000000	the limited memory
0.2060000000	efficiently solved using
0.2060000000	quantum physics and
0.2060000000	or more generally
0.2060000000	a well trained
0.2060000000	existing state of
0.2060000000	an ever increasing
0.2060000000	tensor decomposition and
0.2060000000	the proposed solution
0.2060000000	for practical applications
0.2060000000	for word level
0.2060000000	three steps 1
0.2060000000	the bayesian approach
0.2060000000	a manually annotated
0.2060000000	classes of models
0.2060000000	from raw data
0.2060000000	make two contributions
0.2060000000	and most importantly
0.2060000000	achieved state of
0.2060000000	make three contributions
0.2060000000	accumulation point of
0.2060000000	previous state of
0.2060000000	representations for image
0.2060000000	at two levels
0.2060000000	approach for object
0.2060000000	the model s
0.2060000000	the graph structure
0.2060000000	of differential privacy
0.2060000000	100 and svhn
0.2060000000	training images and
0.2060000000	grammars and
0.2060000000	models as
0.2060000000	problems and
0.2060000000	challenging for
0.2060000000	mostly focus
0.2060000000	interactions in
0.2060000000	prediction of
0.2060000000	three fold
0.2060000000	weights for
0.2060000000	building upon
0.2060000000	for information
0.2060000000	the listener
0.2060000000	the connectivity
0.2060000000	the effort
0.2060000000	the list
0.2060000000	m 3
0.2060000000	coping with
0.2060000000	information and
0.2060000000	interplay between
0.2060000000	originate from
0.2060000000	of length
0.2060000000	of aixi
0.2060000000	self organisation
0.2060000000	approximation and
0.2060000000	task with
0.2060000000	intuition behind
0.2060000000	dozens of
0.2060000000	applicable for
0.2060000000	with running
0.2060000000	a residual
0.2060000000	detection in
0.2060000000	a variable
0.2060000000	selected from
0.2050000000	the optimal value function
0.2050000000	to achieve better performance
0.2050000000	a novel and efficient
0.2050000000	on publicly available datasets
0.2050000000	the necessary and sufficient
0.2050000000	the method of choice
0.2050000000	the required number of
0.2050000000	both continuous and discrete
0.2050000000	both real and simulated
0.2050000000	on two challenging datasets
0.2050000000	on two public datasets
0.2050000000	a necessary and sufficient
0.2050000000	the mean squared error
0.2050000000	between training and test
0.2050000000	achieving state of
0.2050000000	additional information such
0.2050000000	change over time
0.2050000000	the differences in
0.2050000000	the recurrent neural
0.2050000000	np hard in
0.2050000000	social media such
0.2050000000	achieves significantly better
0.2050000000	this novel approach
0.2050000000	challenging task because
0.2050000000	mixture of two
0.2050000000	challenging task due
0.2050000000	commonly used in
0.2050000000	experiments on several
0.2050000000	rigid structure from
0.2050000000	complex tasks such
0.2050000000	application domains such
0.2050000000	perform significantly better
0.2050000000	boltzmann machines and
0.2050000000	method performs better
0.2050000000	classification tasks such
0.2050000000	a change in
0.2050000000	recent years due
0.2050000000	application areas such
0.2050000000	learning algorithms in
0.2050000000	as follows 1
0.2050000000	learning algorithms such
0.2050000000	for sentence level
0.2050000000	image classification by
0.2050000000	as much information
0.2050000000	machine learning such
0.2050000000	learning problems such
0.2050000000	extensive experiments show
0.2050000000	regions as well
0.2050000000	structured data such
0.2050000000	performs significantly better
0.2050000000	features such as
0.2050000000	the bayesian network
0.2050000000	remains challenging due
0.2050000000	approach based on
0.2050000000	a brief survey
0.2050000000	a single model
0.2050000000	o 1 epsilon
0.2050000000	the execution time
0.2050000000	simultaneous localization and
0.2050000000	to new domains
0.2050000000	better or comparable
0.2050000000	commonly referred to
0.2050000000	semi supervised and
0.2050000000	categories to
0.2050000000	algorithm uses
0.2050000000	tested in
0.2050000000	constraints by
0.2050000000	years of
0.2050000000	learned with
0.2050000000	begins with
0.2050000000	evaluated with
0.2050000000	difficulty in
0.2050000000	sub problems
0.2050000000	mechanism of
0.2050000000	similarly to
0.2050000000	correlation with
0.2050000000	implementation and
0.2050000000	objective of
0.2050000000	majority of
0.2050000000	problems for
0.2050000000	regression with
0.2050000000	bias and
0.2050000000	rf and
0.2050000000	discovered by
0.2050000000	running on
0.2050000000	coverage of
0.2050000000	zadeh s
0.2050000000	cnns for
0.2050000000	validated by
0.2050000000	verification of
0.2050000000	orientation and
0.2050000000	posed as
0.2050000000	expensive and
0.2050000000	performance to
0.2050000000	bounds of
0.2050000000	prediction using
0.2050000000	resolution with
0.2050000000	difference of
0.2050000000	species of
0.2050000000	two variables
0.2050000000	distribution in
0.2050000000	referred as
0.2050000000	comparisons with
0.2050000000	steps in
0.2050000000	dimensions of
0.2050000000	dimension d
0.2050000000	wearer s
0.2050000000	background and
0.2050000000	formulations of
0.2050000000	shortcomings of
0.2050000000	fields on
0.2050000000	code and
0.2050000000	invariance to
0.2050000000	reward for
0.2050000000	for multi
0.2050000000	determine whether
0.2050000000	code for
0.2050000000	realization of
0.2050000000	plug in
0.2050000000	blocks of
0.2050000000	requirements for
0.2050000000	occlusion and
0.2050000000	consequence of
0.2050000000	subclass of
0.2050000000	candidates of
0.2050000000	instantiations of
0.2050000000	occurs in
0.2050000000	the ordering
0.2050000000	detecting and
0.2050000000	the medial
0.2050000000	clusters and
0.2050000000	representative of
0.2050000000	systems in
0.2050000000	the line
0.2050000000	the goals
0.2050000000	the readout
0.2050000000	inspiration from
0.2050000000	extracted using
0.2050000000	assumption of
0.2050000000	instances and
0.2050000000	compete with
0.2050000000	instances from
0.2050000000	proves to
0.2050000000	commercially available
0.2050000000	logics and
0.2050000000	coincide with
0.2050000000	variability in
0.2050000000	incorporated in
0.2050000000	estimates for
0.2050000000	methods from
0.2050000000	topics in
0.2050000000	embedding to
0.2050000000	attention for
0.2050000000	pattern of
0.2050000000	researchers in
0.2050000000	formalization of
0.2050000000	superiority of
0.2050000000	color and
0.2050000000	principle of
0.2050000000	advancements in
0.2050000000	constraint on
0.2050000000	sgd in
0.2050000000	verified by
0.2050000000	fingerprints of
0.2050000000	dct and
0.2050000000	complexity in
0.2050000000	scales to
0.2050000000	almost exclusively
0.2050000000	conclude by
0.2050000000	cnn for
0.2050000000	of sanskrit
0.2050000000	result on
0.2050000000	alignment and
0.2050000000	removal of
0.2050000000	analyzed and
0.2050000000	of colorectal
0.2050000000	architecture of
0.2050000000	communication between
0.2050000000	state to
0.2050000000	contaminated by
0.2050000000	concentrated on
0.2050000000	documents in
0.2050000000	comment on
0.2050000000	scalable to
0.2050000000	hold for
0.2050000000	occurrence of
0.2050000000	denoted as
0.2050000000	hardness of
0.2050000000	outliers in
0.2050000000	arms with
0.2050000000	harmonic mean
0.2050000000	nonlocal self
0.2050000000	relationships in
0.2050000000	adopted in
0.2050000000	reasons for
0.2050000000	compression of
0.2050000000	behaviors of
0.2050000000	discrepancy between
0.2050000000	double q
0.2050000000	regularization and
0.2050000000	presented to
0.2050000000	tools and
0.2050000000	abilities of
0.2050000000	helpful in
0.2050000000	lie on
0.2050000000	fall into
0.2050000000	streams of
0.2050000000	range from
0.2050000000	constant time
0.2050000000	represented using
0.2050000000	de l
0.2050000000	measures for
0.2050000000	demonstrated through
0.2050000000	strength of
0.2050000000	quality from
0.2050000000	task for
0.2050000000	demonstrated to
0.2050000000	enhancement of
0.2050000000	approximation for
0.2050000000	configurations of
0.2050000000	vectors in
0.2050000000	blackwell s
0.2050000000	values in
0.2050000000	approach provides
0.2050000000	faced by
0.2050000000	valiant s
0.2050000000	priors for
0.2050000000	gates and
0.2050000000	decisions made
0.2050000000	gathered from
0.2050000000	achieved in
0.2050000000	outperform other
0.2050000000	achieved through
0.2050000000	motivation behind
0.2050000000	drawn much
0.2050000000	centered around
0.2050000000	named as
0.2050000000	classification system
0.2050000000	common causes
0.2050000000	bringing together
0.2050000000	challenges of
0.2050000000	and different
0.2050000000	object part
0.2050000000	diversity in
0.2050000000	logic for
0.2050000000	suite of
0.2050000000	restrictions on
0.2050000000	transform in
0.2050000000	evaluations on
0.2050000000	a source
0.2050000000	limited in
0.2050000000	5 000
0.2050000000	videos with
0.2050000000	accuracies of
0.2050000000	texts and
0.2050000000	a discriminator
0.2050000000	texts by
0.2050000000	solutions in
0.2050000000	sentences from
0.2050000000	potential of
0.2050000000	length and
0.2050000000	a linguistic
0.2050000000	segmentation using
0.2050000000	denoising and
0.2050000000	segmentation to
0.2050000000	costs and
0.2050000000	deviation from
0.2050000000	market and
0.2040000000	on cifar 10 and cifar 100
0.2040000000	a large amount of data
0.2040000000	neural sequence to sequence models
0.2040000000	images using convolutional neural networks
0.2040000000	recognition using convolutional neural networks
0.2040000000	both linear and non linear
0.2040000000	tasks in natural language processing
0.2040000000	the same number of parameters
0.2040000000	advances in deep neural networks
0.2040000000	the effectiveness and robustness of
0.2040000000	signal to noise ratio psnr
0.2040000000	to scale to large
0.2040000000	first and second order
0.2040000000	to solve such problems
0.2040000000	the convergence rates of
0.2040000000	s rule of combination
0.2040000000	on amazon mechanical turk
0.2040000000	as input and outputs
0.2040000000	a new deep learning
0.2040000000	dempster shafer theory for
0.2040000000	a robust and efficient
0.2040000000	the entire set of
0.2040000000	more effective and efficient
0.2040000000	the problem of semantic
0.2040000000	on several large scale
0.2040000000	both static and dynamic
0.2040000000	one out cross validation
0.2040000000	not known in advance
0.2040000000	outperforms several state of
0.2040000000	number of parameters and
0.2040000000	for computer vision applications
0.2040000000	a flexible and efficient
0.2040000000	both accuracy and efficiency
0.2040000000	a new data set
0.2040000000	a generative model for
0.2040000000	the number of latent
0.2040000000	both source and target
0.2040000000	used to fine tune
0.2040000000	on pascal voc 2012
0.2040000000	such as image classification
0.2040000000	a metric space
0.2040000000	and computer science
0.2040000000	a tree structured
0.2040000000	of t sne
0.2040000000	an intermediate representation
0.2040000000	an intermediate step
0.2040000000	the resulting model
0.2040000000	this paper demonstrates
0.2040000000	computer vision applications
0.2040000000	an infinite dimensional
0.2040000000	a patch based
0.2040000000	a novel kernel
0.2040000000	the first algorithm
0.2040000000	the target data
0.2040000000	the causal structure
0.2040000000	1 epsilon 2
0.2040000000	machine translation system
0.2040000000	in practical situations
0.2040000000	the quantity of
0.2040000000	the start of
0.2040000000	the means of
0.2040000000	of mobile robots
0.2040000000	the mechanisms of
0.2040000000	three main contributions
0.2040000000	in everyday life
0.2040000000	a well founded
0.2040000000	a great challenge
0.2040000000	in d dimensions
0.2040000000	in o log
0.2040000000	the more recent
0.2040000000	for model training
0.2040000000	less accurate than
0.2040000000	in computer science
0.2040000000	of one class
0.2040000000	datasets and show
0.2040000000	the modes of
0.2040000000	a concept class
0.2040000000	the action of
0.2040000000	three public datasets
0.2040000000	first deep learning
0.2040000000	a meta algorithm
0.2040000000	shown to achieve
0.2040000000	a contextual bandit
0.2040000000	a ranking based
0.2040000000	in natural images
0.2040000000	wide range of
0.2040000000	deep network with
0.2040000000	to further reduce
0.2040000000	to new data
0.2040000000	to end with
0.2040000000	an alternating optimization
0.2040000000	proposed to learn
0.2040000000	proposed to overcome
0.2040000000	the relative entropy
0.2040000000	the best arm
0.2040000000	areas such as
0.2040000000	element of
0.2040000000	difficulty of
0.2040000000	accuracy with
0.2040000000	accuracy than
0.2040000000	this norm
0.2040000000	vector of
0.2040000000	new video
0.2040000000	improves over
0.2040000000	this vector
0.2040000000	tested using
0.2040000000	users to
0.2040000000	lists of
0.2040000000	demonstration of
0.2040000000	start from
0.2040000000	exposed to
0.2040000000	mapping of
0.2040000000	s calculus
0.2040000000	phase of
0.2040000000	performance as
0.2040000000	2 boosting
0.2040000000	extended with
0.2040000000	evidence of
0.2040000000	queries to
0.2040000000	dimension and
0.2040000000	introduce new
0.2040000000	avenues for
0.2040000000	as face
0.2040000000	image into
0.2040000000	mismatch between
0.2040000000	two attention
0.2040000000	as graphs
0.2040000000	factor of
0.2040000000	3d mapping
0.2040000000	3d morphable
0.2040000000	synthesis of
0.2040000000	insights on
0.2040000000	alternatives to
0.2040000000	k d
0.2040000000	weights to
0.2040000000	techniques like
0.2040000000	aware of
0.2040000000	vision system
0.2040000000	modelling and
0.2040000000	for nmt
0.2040000000	for stock
0.2040000000	for dl
0.2040000000	for multilayer
0.2040000000	efficient way
0.2040000000	for relation
0.2040000000	for opinion
0.2040000000	on point
0.2040000000	ordering of
0.2040000000	for driving
0.2040000000	for production
0.2040000000	for translation
0.2040000000	for logo
0.2040000000	efficient than
0.2040000000	justification for
0.2040000000	for writer
0.2040000000	exponentially many
0.2040000000	candidates for
0.2040000000	expression for
0.2040000000	unsuitable for
0.2040000000	the rs
0.2040000000	the match
0.2040000000	the changes
0.2040000000	technique in
0.2040000000	the specific
0.2040000000	tracking system
0.2040000000	the vlad
0.2040000000	the predator
0.2040000000	the reflectance
0.2040000000	the nk
0.2040000000	the ce
0.2040000000	the 8
0.2040000000	the easy
0.2040000000	the fitting
0.2040000000	the site
0.2040000000	the pedestrians
0.2040000000	the norms
0.2040000000	the citation
0.2040000000	the ad
0.2040000000	the inability
0.2040000000	the pure
0.2040000000	the identifiability
0.2040000000	the spine
0.2040000000	the admm
0.2040000000	scope of
0.2040000000	the kinematic
0.2040000000	the expressions
0.2040000000	the ir
0.2040000000	the alpha
0.2040000000	the events
0.2040000000	the granularity
0.2040000000	the dialog
0.2040000000	the news
0.2040000000	the outlier
0.2040000000	explanations for
0.2040000000	the baseline
0.2040000000	setting of
0.2040000000	the bernstein
0.2040000000	efficiency in
0.2040000000	the hdp
0.2040000000	the machines
0.2040000000	the cell
0.2040000000	the team
0.2040000000	the langevin
0.2040000000	feedback from
0.2040000000	agreement between
0.2040000000	the psf
0.2040000000	the pomdp
0.2040000000	feasibility of
0.2040000000	the twin
0.2040000000	the sun
0.2040000000	agreement with
0.2040000000	200 000
0.2040000000	exploited by
0.2040000000	operations on
0.2040000000	optimization in
0.2040000000	benchmark for
0.2040000000	explanation for
0.2040000000	flexibility and
0.2040000000	known classes
0.2040000000	humans and
0.2040000000	learning using
0.2040000000	attention on
0.2040000000	system and
0.2040000000	classes while
0.2040000000	classes in
0.2040000000	fire neurons
0.2040000000	eigenvectors of
0.2040000000	examination of
0.2040000000	of speaker
0.2040000000	of affine
0.2040000000	of dialog
0.2040000000	of drift
0.2040000000	i ve
0.2040000000	mnist and
0.2040000000	back propagating
0.2040000000	exist for
0.2040000000	recently become
0.2040000000	of ordinal
0.2040000000	of sentiment
0.2040000000	studied for
0.2040000000	attempts to
0.2040000000	of fair
0.2040000000	of multilayer
0.2040000000	of possibilistic
0.2040000000	of crossings
0.2040000000	effects on
0.2040000000	result from
0.2040000000	of beliefs
0.2040000000	of machines
0.2040000000	of nmt
0.2040000000	importance in
0.2040000000	of leaky
0.2040000000	of modules
0.2040000000	of nonnegative
0.2040000000	of dags
0.2040000000	enabled by
0.2040000000	architecture with
0.2040000000	of layer
0.2040000000	projections of
0.2040000000	interface for
0.2040000000	of templates
0.2040000000	of range
0.2040000000	of levels
0.2040000000	of motifs
0.2040000000	full matrix
0.2040000000	method provides
0.2040000000	of landmarks
0.2040000000	of inconsistency
0.2040000000	of soil
0.2040000000	of tilt
0.2040000000	of pulmonary
0.2040000000	of circles
0.2040000000	documents and
0.2040000000	phases of
0.2040000000	believed to
0.2040000000	compression and
0.2040000000	to hidden
0.2040000000	continue to
0.2040000000	explored in
0.2040000000	decrease in
0.2040000000	an independence
0.2040000000	dependencies in
0.2040000000	to word
0.2040000000	an emergency
0.2040000000	to class
0.2040000000	successes in
0.2040000000	to normal
0.2040000000	fit to
0.2040000000	step towards
0.2040000000	these systems
0.2040000000	tools as
0.2040000000	pipeline for
0.2040000000	begin with
0.2040000000	begin by
0.2040000000	turned into
0.2040000000	baselines and
0.2040000000	density and
0.2040000000	images or
0.2040000000	tagger for
0.2040000000	contributing to
0.2040000000	time causal
0.2040000000	studies of
0.2040000000	tool in
0.2040000000	resource for
0.2040000000	power and
0.2040000000	experiment on
0.2040000000	derived by
0.2040000000	tasks on
0.2040000000	t rate
0.2040000000	images by
0.2040000000	features or
0.2040000000	dataset from
0.2040000000	likelihood of
0.2040000000	represented with
0.2040000000	experiments and
0.2040000000	questions as
0.2040000000	optimal for
0.2040000000	mappings and
0.2040000000	regions to
0.2040000000	scenes with
0.2040000000	scenes and
0.2040000000	achieved using
0.2040000000	motivation for
0.2040000000	link between
0.2040000000	with video
0.2040000000	and song
0.2040000000	relating to
0.2040000000	and coding
0.2040000000	with latent
0.2040000000	and slot
0.2040000000	survey of
0.2040000000	well calibrated
0.2040000000	communicate with
0.2040000000	illustrated on
0.2040000000	faces in
0.2040000000	requirement of
0.2040000000	requirement for
0.2040000000	monitoring of
0.2040000000	in reasoning
0.2040000000	17 000
0.2040000000	1 ell
0.2040000000	r 3
0.2040000000	a scoring
0.2040000000	metric for
0.2040000000	calculated by
0.2040000000	or motion
0.2040000000	a ct
0.2040000000	a transition
0.2040000000	a fractal
0.2040000000	a critic
0.2040000000	a driving
0.2040000000	discussed and
0.2040000000	in user
0.2040000000	in multi
0.2040000000	in robots
0.2040000000	in gp
0.2040000000	in risk
0.2040000000	in phase
0.2040000000	in energy
0.2040000000	a beta
0.2040000000	tradeoffs between
0.2040000000	in gradient
0.2040000000	a movie
0.2040000000	problem using
0.2040000000	learnt from
0.2040000000	relate to
0.2040000000	organization of
0.2040000000	diagnosis and
0.2030000000	in neural machine translation nmt
0.2030000000	several orders of magnitude faster
0.2030000000	a singular value decomposition
0.2030000000	the theory of belief
0.2030000000	such as face recognition
0.2030000000	the number of items
0.2030000000	both unsupervised and supervised
0.2030000000	a systematic approach
0.2030000000	per iteration complexity
0.2030000000	an image and
0.2030000000	with synthetic images
0.2030000000	and non local
0.2030000000	method based on
0.2030000000	the trace of
0.2030000000	an infinite number
0.2030000000	such as evolutionary
0.2030000000	use of recurrent
0.2030000000	theory of intelligence
0.2030000000	the cause of
0.2030000000	search space to
0.2030000000	a general model
0.2030000000	most existing methods
0.2030000000	many natural language
0.2030000000	set of models
0.2030000000	10 times faster
0.2030000000	a binary classification
0.2030000000	of 3d models
0.2030000000	the relation of
0.2030000000	algorithm based on
0.2030000000	a point in
0.2030000000	the non local
0.2030000000	by back propagating
0.2030000000	algorithm for clustering
0.2030000000	in video sequences
0.2030000000	the missing values
0.2030000000	the paper proposes
0.2030000000	classification of images
0.2030000000	an automatic method
0.2030000000	and reinforcement learning
0.2030000000	the well studied
0.2030000000	this study proposes
0.2030000000	the art in
0.2030000000	successfully applied to
0.2030000000	present several
0.2030000000	one stage
0.2030000000	sub band
0.2030000000	this distance
0.2030000000	learned on
0.2030000000	pso and
0.2030000000	representations with
0.2030000000	new strategy
0.2030000000	this operator
0.2030000000	new 3d
0.2030000000	utilized in
0.2030000000	this memory
0.2030000000	this policy
0.2030000000	one view
0.2030000000	one language
0.2030000000	both state
0.2030000000	descriptors for
0.2030000000	recommendations for
0.2030000000	distribution on
0.2030000000	cnns and
0.2030000000	much fewer
0.2030000000	best arm
0.2030000000	framework in
0.2030000000	distribution to
0.2030000000	stage of
0.2030000000	degradation in
0.2030000000	comparisons between
0.2030000000	on manifold
0.2030000000	domain of
0.2030000000	dynamics in
0.2030000000	edges and
0.2030000000	weights in
0.2030000000	improvement on
0.2030000000	correlations among
0.2030000000	modelled as
0.2030000000	each unseen
0.2030000000	policy for
0.2030000000	descriptor for
0.2030000000	results using
0.2030000000	on noise
0.2030000000	from conditional
0.2030000000	each query
0.2030000000	research into
0.2030000000	fps on
0.2030000000	operate in
0.2030000000	investigated in
0.2030000000	formalized as
0.2030000000	the dropout
0.2030000000	the pruning
0.2030000000	the rain
0.2030000000	the reparameterization
0.2030000000	the link
0.2030000000	the hardness
0.2030000000	explanations of
0.2030000000	the thermal
0.2030000000	the genes
0.2030000000	the server
0.2030000000	the optic
0.2030000000	the landmark
0.2030000000	the voting
0.2030000000	the detectors
0.2030000000	the spd
0.2030000000	the intermediate
0.2030000000	the stopping
0.2030000000	the ts
0.2030000000	the gpu
0.2030000000	the exploitation
0.2030000000	the projective
0.2030000000	the spiking
0.2030000000	the discretization
0.2030000000	dimensionality of
0.2030000000	the ga
0.2030000000	the container
0.2030000000	the fake
0.2030000000	the minority
0.2030000000	the understanding
0.2030000000	the item
0.2030000000	the existing
0.2030000000	the weakly
0.2030000000	the patches
0.2030000000	the plant
0.2030000000	the swarm
0.2030000000	the graphs
0.2030000000	the tongue
0.2030000000	the links
0.2030000000	the superposition
0.2030000000	the neutrosophic
0.2030000000	the learned
0.2030000000	process in
0.2030000000	the nash
0.2030000000	the lesions
0.2030000000	discovery and
0.2030000000	variability of
0.2030000000	constrained to
0.2030000000	management of
0.2030000000	attention and
0.2030000000	retrieval system
0.2030000000	parametrized by
0.2030000000	provided for
0.2030000000	develop two
0.2030000000	of specificity
0.2030000000	means for
0.2030000000	operating in
0.2030000000	of land
0.2030000000	of activities
0.2030000000	of matroids
0.2030000000	complex and
0.2030000000	more energy
0.2030000000	of bias
0.2030000000	of submodular
0.2030000000	of squares
0.2030000000	of propositions
0.2030000000	of cell
0.2030000000	of argumentation
0.2030000000	of trajectory
0.2030000000	of bn
0.2030000000	of block
0.2030000000	of manifolds
0.2030000000	of contour
0.2030000000	of group
0.2030000000	of dictionary
0.2030000000	of strategy
0.2030000000	of drug
0.2030000000	of elm
0.2030000000	of game
0.2030000000	of detectors
0.2030000000	of epsilon
0.2030000000	of ssc
0.2030000000	of geographic
0.2030000000	of flow
0.2030000000	of protein
0.2030000000	of prosody
0.2030000000	of gravitational
0.2030000000	of strokes
0.2030000000	given accuracy
0.2030000000	frame as
0.2030000000	of games
0.2030000000	of negation
0.2030000000	sense of
0.2030000000	an alignment
0.2030000000	these layers
0.2030000000	to classes
0.2030000000	to empirical
0.2030000000	often suffers
0.2030000000	imposed on
0.2030000000	provide useful
0.2030000000	provide new
0.2030000000	by physical
0.2030000000	by cite
0.2030000000	training to
0.2030000000	tasks for
0.2030000000	by segmentation
0.2030000000	f p
0.2030000000	features into
0.2030000000	n matrix
0.2030000000	submission to
0.2030000000	short time
0.2030000000	with datasets
0.2030000000	with privileged
0.2030000000	relaxation of
0.2030000000	monitoring and
0.2030000000	in sentiment
0.2030000000	in cyber
0.2030000000	a skeleton
0.2030000000	a sensor
0.2030000000	analysis using
0.2030000000	a lstm
0.2030000000	a code
0.2030000000	in lung
0.2030000000	a hypergraph
0.2030000000	in stark
0.2030000000	a pointer
0.2030000000	d times
0.2030000000	proofs of
0.2020000000	dataset as well as on
0.2020000000	between synthetic and real
0.2020000000	the quality of image
0.2020000000	in image and video
0.2020000000	a bayesian approach to
0.2020000000	with end to end
0.2020000000	for gaussian mixture models
0.2020000000	in generative adversarial networks
0.2020000000	for real time object
0.2020000000	in 2d and 3d
0.2020000000	two large scale datasets
0.2020000000	very deep convolutional networks
0.2020000000	range of applications and
0.2020000000	between source and target
0.2020000000	the problem of deciding
0.2020000000	the problem of video
0.2020000000	the problem of person
0.2020000000	the problem of approximate
0.2020000000	computer vision and natural
0.2020000000	of first order logic
0.2020000000	the use of visual
0.2020000000	for deep reinforcement learning
0.2020000000	precision recall and f
0.2020000000	of 3d human pose
0.2020000000	the classification accuracy of
0.2020000000	of positive and negative
0.2020000000	the proposed algorithm outperforms
0.2020000000	the number of queries
0.2020000000	the number of linear
0.2020000000	the number of categories
0.2020000000	the number of kernels
0.2020000000	the task of semantic
0.2020000000	synthetic data and on
0.2020000000	achieves new state of
0.2020000000	nesterov s accelerated gradient
0.2020000000	with non negative
0.2020000000	ill posed inverse
0.2020000000	and high dimensional
0.2020000000	to previously unseen
0.2020000000	the second network
0.2020000000	and pattern recognition
0.2020000000	flow estimation and
0.2020000000	a desired level
0.2020000000	memetic algorithm for
0.2020000000	fields such as
0.2020000000	current state of
0.2020000000	transfer learning in
0.2020000000	to non linear
0.2020000000	data points in
0.2020000000	the past years
0.2020000000	of n items
0.2020000000	image restoration and
0.2020000000	a novel 3d
0.2020000000	online learning of
0.2020000000	of co occurrence
0.2020000000	a novel text
0.2020000000	optical flow in
0.2020000000	a novel object
0.2020000000	correlate well with
0.2020000000	the 3d cnn
0.2020000000	the time delay
0.2020000000	the first network
0.2020000000	the treatment of
0.2020000000	hidden layers and
0.2020000000	terms of both
0.2020000000	and semi supervised
0.2020000000	number of random
0.2020000000	l 2 1
0.2020000000	the pareto front
0.2020000000	with l 1
0.2020000000	and 3d face
0.2020000000	and 3d object
0.2020000000	and qualitative evaluation
0.2020000000	a new 3d
0.2020000000	a new face
0.2020000000	a new state
0.2020000000	a specific type
0.2020000000	face recognition system
0.2020000000	a random walk
0.2020000000	learning models with
0.2020000000	prediction model for
0.2020000000	the other agent
0.2020000000	the other algorithms
0.2020000000	face recognition with
0.2020000000	phase transition of
0.2020000000	of q learning
0.2020000000	the ratio between
0.2020000000	the acquisition of
0.2020000000	achieves state of
0.2020000000	classification accuracy on
0.2020000000	outperforms state of
0.2020000000	language modeling and
0.2020000000	classification results of
0.2020000000	of 3d object
0.2020000000	the aggregation of
0.2020000000	the explosion of
0.2020000000	models and deep
0.2020000000	of interest roi
0.2020000000	based on human
0.2020000000	a long term
0.2020000000	cifar 10 and
0.2020000000	feature selection in
0.2020000000	a generic framework
0.2020000000	adversarial examples in
0.2020000000	based on fuzzy
0.2020000000	the proposed 3d
0.2020000000	users based on
0.2020000000	images of faces
0.2020000000	of l 1
0.2020000000	a simple model
0.2020000000	the two images
0.2020000000	training data by
0.2020000000	the mapping function
0.2020000000	of two variables
0.2020000000	of such problems
0.2020000000	for 3d human
0.2020000000	a 3d face
0.2020000000	a 3d pose
0.2020000000	a 3d convolutional
0.2020000000	a 3d shape
0.2020000000	a principled approach
0.2020000000	of new algorithms
0.2020000000	of other agents
0.2020000000	policy evaluation and
0.2020000000	the new state
0.2020000000	the new data
0.2020000000	metric learning and
0.2020000000	a unified approach
0.2020000000	o log 1
0.2020000000	optimal solutions in
0.2020000000	the new task
0.2020000000	the new class
0.2020000000	for one dimensional
0.2020000000	of on line
0.2020000000	top k error
0.2020000000	automatic detection of
0.2020000000	an important tool
0.2020000000	an efficient method
0.2020000000	achieve state of
0.2020000000	dictionary learning and
0.2020000000	the equivalence between
0.2020000000	the one class
0.2020000000	vc dimension of
0.2020000000	out of distribution
0.2020000000	used in image
0.2020000000	unseen during
0.2020000000	labels in
0.2020000000	one target
0.2020000000	comparison between
0.2020000000	still suffer
0.2020000000	new search
0.2020000000	new memory
0.2020000000	new estimator
0.2020000000	new domain
0.2020000000	this image
0.2020000000	this classifier
0.2020000000	other agent
0.2020000000	new unsupervised
0.2020000000	used in
0.2020000000	other optimization
0.2020000000	new ensemble
0.2020000000	new document
0.2020000000	this noise
0.2020000000	this kernel
0.2020000000	new face
0.2020000000	tree to
0.2020000000	novel spectral
0.2020000000	s 2
0.2020000000	2 2
0.2020000000	different target
0.2020000000	3d spatial
0.2020000000	novel text
0.2020000000	novel 3d
0.2020000000	novel class
0.2020000000	novel language
0.2020000000	different face
0.2020000000	as graph
0.2020000000	different human
0.2020000000	as logic
0.2020000000	prediction in
0.2020000000	2 text
0.2020000000	different clustering
0.2020000000	different values
0.2020000000	different color
0.2020000000	as models
0.2020000000	two manifold
0.2020000000	as sentiment
0.2020000000	as edge
0.2020000000	as adversarial
0.2020000000	two parameter
0.2020000000	two applications
0.2020000000	into image
0.2020000000	two face
0.2020000000	two classification
0.2020000000	creation of
0.2020000000	k times
0.2020000000	k 3
0.2020000000	classifiers in
0.2020000000	second language
0.2020000000	commonly found
0.2020000000	on question
0.2020000000	for business
0.2020000000	for protein
0.2020000000	for sar
0.2020000000	for sketch
0.2020000000	for wireless
0.2020000000	on samples
0.2020000000	for shape
0.2020000000	for rank
0.2020000000	for meta
0.2020000000	each hypothesis
0.2020000000	for end
0.2020000000	for gait
0.2020000000	on attention
0.2020000000	on lstm
0.2020000000	on vision
0.2020000000	on hierarchical
0.2020000000	on latent
0.2020000000	for factored
0.2020000000	on color
0.2020000000	on epsilon
0.2020000000	for control
0.2020000000	on product
0.2020000000	k sparse
0.2020000000	for game
0.2020000000	from video
0.2020000000	for sarcasm
0.2020000000	for vqa
0.2020000000	for speaker
0.2020000000	for question
0.2020000000	for graph
0.2020000000	for label
0.2020000000	from quantum
0.2020000000	on face
0.2020000000	for algorithm
0.2020000000	optimized by
0.2020000000	scalability and
0.2020000000	from mathcal
0.2020000000	on computational
0.2020000000	3 3
0.2020000000	correlate with
0.2020000000	for liver
0.2020000000	for source
0.2020000000	for complexity
0.2020000000	same category
0.2020000000	the quantile
0.2020000000	the som
0.2020000000	the fault
0.2020000000	the horizon
0.2020000000	the svd
0.2020000000	the robots
0.2020000000	the wind
0.2020000000	the loopy
0.2020000000	the elm
0.2020000000	x 2
0.2020000000	the nmf
0.2020000000	the retinal
0.2020000000	the movie
0.2020000000	the affine
0.2020000000	the mmd
0.2020000000	the fingerprint
0.2020000000	the reflection
0.2020000000	the markers
0.2020000000	the epistemic
0.2020000000	the stance
0.2020000000	the committee
0.2020000000	the lattice
0.2020000000	the symbol
0.2020000000	the food
0.2020000000	the gene
0.2020000000	the clothing
0.2020000000	the undirected
0.2020000000	the emotion
0.2020000000	the sdp
0.2020000000	the lambda
0.2020000000	the hypergraph
0.2020000000	the dr
0.2020000000	the scattering
0.2020000000	the conference
0.2020000000	growth in
0.2020000000	the gating
0.2020000000	the business
0.2020000000	the accumulation
0.2020000000	the stock
0.2020000000	the skin
0.2020000000	the gesture
0.2020000000	the conflict
0.2020000000	the intelligence
0.2020000000	the rf
0.2020000000	the submodular
0.2020000000	the ball
0.2020000000	the mrf
0.2020000000	the ode
0.2020000000	the pso
0.2020000000	the appropriateness
0.2020000000	the grasp
0.2020000000	the bridge
0.2020000000	the gamma
0.2020000000	the analyst
0.2020000000	the cs
0.2020000000	the personalized
0.2020000000	the cut
0.2020000000	contributions to
0.2020000000	the child
0.2020000000	the breast
0.2020000000	the hr
0.2020000000	the ilp
0.2020000000	the cma
0.2020000000	the asp
0.2020000000	the sgd
0.2020000000	the gender
0.2020000000	the covering
0.2020000000	deployment of
0.2020000000	the asr
0.2020000000	the measures
0.2020000000	the horn
0.2020000000	the stimuli
0.2020000000	the adaboost
0.2020000000	the pc
0.2020000000	the interpretations
0.2020000000	the mirror
0.2020000000	the phonological
0.2020000000	the mri
0.2020000000	the prostate
0.2020000000	the narrative
0.2020000000	the triplet
0.2020000000	the owl
0.2020000000	the ls
0.2020000000	the master
0.2020000000	the mfcc
0.2020000000	the gait
0.2020000000	the workers
0.2020000000	the bone
0.2020000000	the hyperparameter
0.2020000000	the motor
0.2020000000	the shrinkage
0.2020000000	the stack
0.2020000000	the kernels
0.2020000000	the ea
0.2020000000	the optimisation
0.2020000000	the tweets
0.2020000000	the solar
0.2020000000	the pooling
0.2020000000	the inpainting
0.2020000000	the ct
0.2020000000	the auc
0.2020000000	the ordinal
0.2020000000	the coalition
0.2020000000	fails to
0.2020000000	the ocr
0.2020000000	the liquid
0.2020000000	the tables
0.2020000000	the nodule
0.2020000000	the replacement
0.2020000000	the dag
0.2020000000	the kinect
0.2020000000	the gabor
0.2020000000	the pyramid
0.2020000000	the noun
0.2020000000	the modes
0.2020000000	the mention
0.2020000000	the disparity
0.2020000000	the manner
0.2020000000	the misclassification
0.2020000000	the lm
0.2020000000	the collected
0.2020000000	the widely
0.2020000000	the lr
0.2020000000	the memristor
0.2020000000	the dispersion
0.2020000000	the eeg
0.2020000000	the fashion
0.2020000000	the egocentric
0.2020000000	the mesh
0.2020000000	the kb
0.2020000000	some users
0.2020000000	the hashing
0.2020000000	c 2
0.2020000000	the guide
0.2020000000	the rbf
0.2020000000	the automaton
0.2020000000	c 1
0.2020000000	the date
0.2020000000	the chinese
0.2020000000	the house
0.2020000000	the protein
0.2020000000	the inventory
0.2020000000	m 1
0.2020000000	annotations for
0.2020000000	aligned with
0.2020000000	consequences of
0.2020000000	sufficient amount
0.2020000000	solver for
0.2020000000	items in
0.2020000000	statistics and
0.2020000000	using sequence
0.2020000000	using face
0.2020000000	over sampling
0.2020000000	utilization of
0.2020000000	such systems
0.2020000000	storage and
0.2020000000	of extraction
0.2020000000	of cca
0.2020000000	of pose
0.2020000000	of approximate
0.2020000000	of skip
0.2020000000	of oracle
0.2020000000	of sigma
0.2020000000	of attribute
0.2020000000	of merit
0.2020000000	of covering
0.2020000000	of vc
0.2020000000	of ad
0.2020000000	of music
0.2020000000	of utility
0.2020000000	of diversity
0.2020000000	of approach
0.2020000000	of fairness
0.2020000000	of pso
0.2020000000	of egocentric
0.2020000000	of growth
0.2020000000	of gesture
0.2020000000	of expectation
0.2020000000	i 1
0.2020000000	of phi
0.2020000000	of lp
0.2020000000	of satisfaction
0.2020000000	of leaf
0.2020000000	relevant for
0.2020000000	estimation using
0.2020000000	of gabor
0.2020000000	of chess
0.2020000000	of rf
0.2020000000	of volume
0.2020000000	of malware
0.2020000000	of dl
0.2020000000	of generation
0.2020000000	of fashion
0.2020000000	of sar
0.2020000000	of grey
0.2020000000	of lambda
0.2020000000	of neutrosophic
0.2020000000	of iris
0.2020000000	of fractal
0.2020000000	of behaviour
0.2020000000	of food
0.2020000000	of age
0.2020000000	of categorization
0.2020000000	of theta
0.2020000000	of tilde
0.2020000000	of bp
0.2020000000	of fit
0.2020000000	of 0
0.2020000000	of boundary
0.2020000000	of dr
0.2020000000	of rankings
0.2020000000	of activity
0.2020000000	of multivariate
0.2020000000	of collaborative
0.2020000000	of movie
0.2020000000	of recognition
0.2020000000	of proteins
0.2020000000	of diffusion
0.2020000000	of manifold
0.2020000000	of fusion
0.2020000000	of rectified
0.2020000000	of workers
0.2020000000	of mcmc
0.2020000000	of shift
0.2020000000	of sleep
0.2020000000	of fingerprint
0.2020000000	of theory
0.2020000000	of mt
0.2020000000	of type
0.2020000000	of phonetic
0.2020000000	of snns
0.2020000000	of heat
0.2020000000	of equivalence
0.2020000000	of turing
0.2020000000	of boosting
0.2020000000	of ga
0.2020000000	of rdf
0.2020000000	of ica
0.2020000000	of generative
0.2020000000	of rain
0.2020000000	of psnr
0.2020000000	of markov
0.2020000000	of map
0.2020000000	of td
0.2020000000	of knowing
0.2020000000	of transform
0.2020000000	of admm
0.2020000000	of nmf
0.2020000000	of ocr
0.2020000000	of mi
0.2020000000	of cooperation
0.2020000000	of novelty
0.2020000000	of tags
0.2020000000	of players
0.2020000000	of services
0.2020000000	of ontology
0.2020000000	of minimax
0.2020000000	of curiosity
0.2020000000	of xml
0.2020000000	of mesh
0.2020000000	of ml
0.2020000000	of crime
0.2020000000	of owl
0.2020000000	of asp
0.2020000000	of grammars
0.2020000000	of mathbf
0.2020000000	of criticality
0.2020000000	of patch
0.2020000000	of gait
0.2020000000	of saliency
0.2020000000	of alpha
0.2020000000	of gibbs
0.2020000000	of diagrams
0.2020000000	given domain
0.2020000000	of invariants
0.2020000000	of wind
0.2020000000	histogram of
0.2020000000	benchmarks and
0.2020000000	to domain
0.2020000000	to problem
0.2020000000	to context
0.2020000000	to knowledge
0.2020000000	to cost
0.2020000000	these neurons
0.2020000000	to quantum
0.2020000000	to web
0.2020000000	to ad
0.2020000000	to disease
0.2020000000	to hand
0.2020000000	to dropout
0.2020000000	to music
0.2020000000	to matching
0.2020000000	to ct
0.2020000000	to risk
0.2020000000	to depth
0.2020000000	to student
0.2020000000	to computation
0.2020000000	to node
0.2020000000	to kernel
0.2020000000	to distributed
0.2020000000	to audio
0.2020000000	to phoneme
0.2020000000	to dialogue
0.2020000000	to indian
0.2020000000	to tasks
0.2020000000	to evolutionary
0.2020000000	to 3d
0.2020000000	to texture
0.2020000000	to functional
0.2020000000	to markov
0.2020000000	an illumination
0.2020000000	to optical
0.2020000000	to person
0.2020000000	to conditional
0.2020000000	to task
0.2020000000	to agents
0.2020000000	to tree
0.2020000000	to item
0.2020000000	to hash
0.2020000000	to peer
0.2020000000	these high
0.2020000000	these semantics
0.2020000000	value distribution
0.2020000000	value network
0.2020000000	helpful for
0.2020000000	occurring in
0.2020000000	modifications of
0.2020000000	shannon s
0.2020000000	time detection
0.2020000000	finite time
0.2020000000	working in
0.2020000000	time tracking
0.2020000000	characters in
0.2020000000	t process
0.2020000000	translation by
0.2020000000	by language
0.2020000000	between class
0.2020000000	by outliers
0.2020000000	graph with
0.2020000000	by image
0.2020000000	by fuzzy
0.2020000000	task on
0.2020000000	by end
0.2020000000	by information
0.2020000000	by topic
0.2020000000	between object
0.2020000000	by 3d
0.2020000000	images containing
0.2020000000	between facial
0.2020000000	filtering and
0.2020000000	approach of
0.2020000000	time semantic
0.2020000000	by slice
0.2020000000	o cnn
0.2020000000	pixel of
0.2020000000	by additive
0.2020000000	submitted to
0.2020000000	and delta
0.2020000000	with fuzzy
0.2020000000	n data
0.2020000000	n objects
0.2020000000	n variables
0.2020000000	part models
0.2020000000	non text
0.2020000000	non causal
0.2020000000	and preference
0.2020000000	part detection
0.2020000000	and ad
0.2020000000	and gabor
0.2020000000	and agents
0.2020000000	and distances
0.2020000000	and tensor
0.2020000000	and ell
0.2020000000	and mathcal
0.2020000000	and textit
0.2020000000	and epsilon
0.2020000000	and fairness
0.2020000000	with rejection
0.2020000000	and beliefs
0.2020000000	and rl
0.2020000000	and fault
0.2020000000	and fashion
0.2020000000	and gene
0.2020000000	and 2d
0.2020000000	with textit
0.2020000000	and vqa
0.2020000000	and facial
0.2020000000	and key
0.2020000000	with alpha
0.2020000000	and arabic
0.2020000000	and salient
0.2020000000	with quantum
0.2020000000	and robot
0.2020000000	and variety
0.2020000000	and quasi
0.2020000000	and quantum
0.2020000000	non fuzzy
0.2020000000	and matrices
0.2020000000	and person
0.2020000000	and relatedness
0.2020000000	and ct
0.2020000000	and emph
0.2020000000	and alpha
0.2020000000	and gaze
0.2020000000	and revision
0.2020000000	a fingerprint
0.2020000000	a pose
0.2020000000	whole data
0.2020000000	in quantum
0.2020000000	a kb
0.2020000000	a dialog
0.2020000000	under sampling
0.2020000000	in event
0.2020000000	0 2
0.2020000000	in vqa
0.2020000000	r 1
0.2020000000	in solar
0.2020000000	in graph
0.2020000000	a vis
0.2020000000	in ml
0.2020000000	in mathcal
0.2020000000	a coalition
0.2020000000	a kidney
0.2020000000	a mutation
0.2020000000	modeled using
0.2020000000	a la
0.2020000000	a lattice
0.2020000000	a 0
0.2020000000	a frequency
0.2020000000	a likelihood
0.2020000000	a narrative
0.2020000000	in ontology
0.2020000000	in asp
0.2020000000	1 minimization
0.2020000000	in crowd
0.2020000000	in fuzzy
0.2020000000	in propositional
0.2020000000	a modality
0.2020000000	in source
0.2020000000	in tree
0.2020000000	or ell
0.2020000000	in inverse
0.2020000000	in model
0.2020000000	in translation
0.2020000000	a story
0.2020000000	a algorithm
0.2020000000	a news
0.2020000000	in end
0.2020000000	in eye
0.2020000000	a pooling
0.2020000000	a covering
0.2020000000	1 0
0.2020000000	in arabic
0.2020000000	a meaning
0.2020000000	in facial
0.2020000000	1 samples
0.2020000000	d complex
0.2020000000	a noun
0.2020000000	without ground
0.2020000000	in qualitative
0.2020000000	a specification
0.2020000000	a navigation
0.2020000000	in black
0.2020000000	a protein
0.2020000000	in variational
0.2020000000	in belief
0.2020000000	1 log
0.2020000000	in policy
0.2020000000	a bn
0.2020000000	a closure
0.2020000000	decomposition and
0.2020000000	hierarchy of
0.2020000000	termed as
0.2010000000	a wide range of computer vision
0.2010000000	a fundamental problem in computer vision
0.2010000000	a large amount of training data
0.2010000000	a variety of synthetic and real
0.2010000000	the use of convolutional neural networks
0.2010000000	the use of deep neural networks
0.2010000000	an important problem in computer vision
0.2010000000	in theory and in practice
0.2010000000	the use of machine learning
0.2010000000	on two publicly available datasets
0.2010000000	do not take into account
0.2010000000	the 0 1 knapsack problem
0.2010000000	the first and second order
0.2010000000	a variety of computer vision
0.2010000000	the amount of training data
0.2010000000	a novel end to end
0.2010000000	in many computer vision tasks
0.2010000000	as well as on real
0.2010000000	a small amount of training
0.2010000000	a new loss function
0.2010000000	with one hidden layer
0.2010000000	an important first step
0.2010000000	the art computer vision
0.2010000000	the over fitting problem
0.2010000000	the upper and lower
0.2010000000	both theoretical and empirical
0.2010000000	on several data sets
0.2010000000	such as convolutional neural
0.2010000000	natural language processing and
0.2010000000	such as logistic regression
0.2010000000	power of deep learning
0.2010000000	the paper also presents
0.2010000000	the corresponding optimization problem
0.2010000000	such as information retrieval
0.2010000000	such as question answering
0.2010000000	such as semantic segmentation
0.2010000000	such as k means
0.2010000000	a novel multi scale
0.2010000000	on three large scale
0.2010000000	amount of labeled data
0.2010000000	this issue by proposing
0.2010000000	on four benchmark datasets
0.2010000000	such as neural networks
0.2010000000	both theoretically and experimentally
0.2010000000	a novel data driven
0.2010000000	such as sentiment analysis
0.2010000000	an important yet challenging
0.2010000000	system of linear equations
0.2010000000	in many application domains
0.2010000000	the available training data
0.2010000000	such as object detection
0.2010000000	to achieve good performance
0.2010000000	the new york times
0.2010000000	to achieve good results
0.2010000000	and cifar 10 datasets
0.2010000000	an ill posed problem
0.2010000000	not seen during training
0.2010000000	a piece of text
0.2010000000	a method to learn
0.2010000000	an over complete dictionary
0.2010000000	1 1 evolutionary algorithm
0.2010000000	the performance of face
0.2010000000	the problem of tracking
0.2010000000	a very challenging problem
0.2010000000	for representing and reasoning
0.2010000000	a novel objective function
0.2010000000	such as speech recognition
0.2010000000	the first large scale
0.2010000000	a novel cnn architecture
0.2010000000	on three benchmark datasets
0.2010000000	the past few decades
0.2010000000	a large collection of
0.2010000000	model in terms of
0.2010000000	the same computational complexity
0.2010000000	images using deep learning
0.2010000000	this line of research
0.2010000000	a novel loss function
0.2010000000	a novel semi supervised
0.2010000000	a new machine learning
0.2010000000	a novel network architecture
0.2010000000	in many image processing
0.2010000000	a novel machine learning
0.2010000000	the bag of features
0.2010000000	on two benchmark datasets
0.2010000000	such as machine translation
0.2010000000	such as hidden markov
0.2010000000	in many practical scenarios
0.2010000000	the first deep learning
0.2010000000	a large and diverse
0.2010000000	the number of hidden
0.2010000000	work well in practice
0.2010000000	a new large scale
0.2010000000	for multiple instance learning
0.2010000000	a given data set
0.2010000000	the maximum mean discrepancy
0.2010000000	class of neural networks
0.2010000000	an f score of
0.2010000000	the mnist cifar 10
0.2010000000	on various benchmark datasets
0.2010000000	such as long short
0.2010000000	such as computer vision
0.2010000000	on two large scale
0.2010000000	both quantitatively and qualitatively
0.2010000000	amount of training data
0.2010000000	of cnn features
0.2010000000	point clouds and
0.2010000000	a larger number
0.2010000000	and named entity
0.2010000000	n 1 2
0.2010000000	the change of
0.2010000000	the on line
0.2010000000	2d or 3d
0.2010000000	genetic algorithms to
0.2010000000	an effective tool
0.2010000000	and non convex
0.2010000000	the security of
0.2010000000	the training examples
0.2010000000	such as neural
0.2010000000	of natural language
0.2010000000	a bayesian method
0.2010000000	a major issue
0.2010000000	the first set
0.2010000000	from few examples
0.2010000000	of deep features
0.2010000000	leads to improved
0.2010000000	for variational inference
0.2010000000	and real world
0.2010000000	measures based on
0.2010000000	data and on
0.2010000000	types of entities
0.2010000000	a common approach
0.2010000000	a general approach
0.2010000000	a new classification
0.2010000000	a significant performance
0.2010000000	a specific set
0.2010000000	a general method
0.2010000000	a two stream
0.2010000000	a new policy
0.2010000000	the article describes
0.2010000000	the r package
0.2010000000	into three categories
0.2010000000	efficient method to
0.2010000000	and off policy
0.2010000000	an active area
0.2010000000	word embeddings by
0.2010000000	for medical diagnosis
0.2010000000	of large numbers
0.2010000000	the non smooth
0.2010000000	the proposed criterion
0.2010000000	for text classification
0.2010000000	in such problems
0.2010000000	in sensor networks
0.2010000000	from first principles
0.2010000000	for low rank
0.2010000000	new model called
0.2010000000	a large pool
0.2010000000	a 3d model
0.2010000000	for structured prediction
0.2010000000	approach consists of
0.2010000000	and future directions
0.2010000000	a test image
0.2010000000	next best view
0.2010000000	optimal solutions to
0.2010000000	this class of
0.2010000000	of domain specific
0.2010000000	to achieve high
0.2010000000	an r package
0.2010000000	the art semantic
0.2010000000	automatic approach to
0.2010000000	if then rules
0.2010000000	input image and
0.2010000000	with high confidence
0.2010000000	model parameters to
0.2010000000	temporal patterns of
0.2010000000	this study aims
0.2010000000	an efficient approach
0.2010000000	the underlying image
0.2010000000	performed with
0.2010000000	that knowledge
0.2010000000	regression or
0.2010000000	other users
0.2010000000	models by
0.2010000000	this rule
0.2010000000	new similarity
0.2010000000	one matrix
0.2010000000	new categories
0.2010000000	interactions and
0.2010000000	new annotated
0.2010000000	this score
0.2010000000	samples in
0.2010000000	entries in
0.2010000000	future work
0.2010000000	computed on
0.2010000000	matrices of
0.2010000000	p systems
0.2010000000	3d convolutions
0.2010000000	as speech
0.2010000000	different local
0.2010000000	prediction with
0.2010000000	performance but
0.2010000000	as image
0.2010000000	different texture
0.2010000000	as domain
0.2010000000	as distributed
0.2010000000	two bayesian
0.2010000000	cnns with
0.2010000000	performances on
0.2010000000	steps of
0.2010000000	frequency of
0.2010000000	scalability of
0.2010000000	conducted in
0.2010000000	for beta
0.2010000000	biases in
0.2010000000	reduction and
0.2010000000	for french
0.2010000000	for colour
0.2010000000	for dempster
0.2010000000	for rule
0.2010000000	on task
0.2010000000	thought to
0.2010000000	for group
0.2010000000	for weak
0.2010000000	for current
0.2010000000	from language
0.2010000000	recovered from
0.2010000000	for spiking
0.2010000000	for target
0.2010000000	for causal
0.2010000000	products of
0.2010000000	from distributed
0.2010000000	characteristics and
0.2010000000	correction of
0.2010000000	each level
0.2010000000	modelled by
0.2010000000	independently of
0.2010000000	the dbn
0.2010000000	the symbolic
0.2010000000	existing ones
0.2010000000	the splitting
0.2010000000	the sr
0.2010000000	the circuit
0.2010000000	the sensing
0.2010000000	the davis
0.2010000000	the handwritten
0.2010000000	the dcnn
0.2010000000	the reviews
0.2010000000	the ant
0.2010000000	the texts
0.2010000000	the workshop
0.2010000000	the wave
0.2010000000	the sound
0.2010000000	the display
0.2010000000	the cancer
0.2010000000	the summaries
0.2010000000	the transform
0.2010000000	the api
0.2010000000	the tissue
0.2010000000	the qa
0.2010000000	the auction
0.2010000000	the manipulation
0.2010000000	the access
0.2010000000	the neighborhoods
0.2010000000	the mathcal
0.2010000000	the estimators
0.2010000000	the relatedness
0.2010000000	the click
0.2010000000	the ads
0.2010000000	the generalised
0.2010000000	the articles
0.2010000000	the dependent
0.2010000000	the rankings
0.2010000000	the script
0.2010000000	the behaviors
0.2010000000	the csp
0.2010000000	the copula
0.2010000000	the authentication
0.2010000000	the lipschitz
0.2010000000	the deformable
0.2010000000	the tweet
0.2010000000	the urban
0.2010000000	the discourse
0.2010000000	the unseen
0.2010000000	the nonnegative
0.2010000000	the functions
0.2010000000	published in
0.2010000000	the saddle
0.2010000000	the particles
0.2010000000	the clique
0.2010000000	the review
0.2010000000	the dp
0.2010000000	the artistic
0.2010000000	the lie
0.2010000000	the curvature
0.2010000000	the landmarks
0.2010000000	the asymptotic
0.2010000000	the reading
0.2010000000	the vectors
0.2010000000	the structural
0.2010000000	the descriptions
0.2010000000	the textural
0.2010000000	the cnns
0.2010000000	the directional
0.2010000000	the segments
0.2010000000	the private
0.2010000000	the smt
0.2010000000	the crossover
0.2010000000	process for
0.2010000000	the knn
0.2010000000	the sa
0.2010000000	the vae
0.2010000000	the bn
0.2010000000	technique to
0.2010000000	the chip
0.2010000000	the interpolation
0.2010000000	the axial
0.2010000000	reliable and
0.2010000000	attention from
0.2010000000	flexibility in
0.2010000000	strategies in
0.2010000000	components in
0.2010000000	up saliency
0.2010000000	strategy to
0.2010000000	score for
0.2010000000	adapting to
0.2010000000	retrieval and
0.2010000000	small amount
0.2010000000	items and
0.2010000000	sums of
0.2010000000	encoded by
0.2010000000	provided with
0.2010000000	of computing
0.2010000000	sat and
0.2010000000	of player
0.2010000000	originated from
0.2010000000	of hindi
0.2010000000	importance for
0.2010000000	of cost
0.2010000000	top performing
0.2010000000	of things
0.2010000000	of units
0.2010000000	of plan
0.2010000000	of privacy
0.2010000000	of anomaly
0.2010000000	of particle
0.2010000000	of communities
0.2010000000	of rotation
0.2010000000	of lifted
0.2010000000	of registration
0.2010000000	of planning
0.2010000000	of segmentation
0.2010000000	of instances
0.2010000000	of emotion
0.2010000000	of gaze
0.2010000000	of term
0.2010000000	of super
0.2010000000	of hand
0.2010000000	of bandit
0.2010000000	of eye
0.2010000000	of batch
0.2010000000	of correspondences
0.2010000000	of dna
0.2010000000	of electricity
0.2010000000	representation in
0.2010000000	of texture
0.2010000000	of goodness
0.2010000000	of agent
0.2010000000	of prostate
0.2010000000	of style
0.2010000000	of process
0.2010000000	of coherence
0.2010000000	of climate
0.2010000000	of score
0.2010000000	estimation with
0.2010000000	of ids
0.2010000000	of liquid
0.2010000000	of crowd
0.2010000000	only model
0.2010000000	full gp
0.2010000000	of manipulation
0.2010000000	general enough
0.2010000000	via tensor
0.2010000000	batch and
0.2010000000	foundations of
0.2010000000	extract useful
0.2010000000	efficiently and
0.2010000000	perturbations of
0.2010000000	to linguistic
0.2010000000	an ad
0.2010000000	to graph
0.2010000000	adaptation and
0.2010000000	to streaming
0.2010000000	value functions
0.2010000000	an nmt
0.2010000000	reasons behind
0.2010000000	to character
0.2010000000	to pixel
0.2010000000	an rdf
0.2010000000	an aspect
0.2010000000	to instances
0.2010000000	to community
0.2010000000	these agents
0.2010000000	operators and
0.2010000000	inherent to
0.2010000000	time face
0.2010000000	space with
0.2010000000	by virtue
0.2010000000	enhanced by
0.2010000000	introduced as
0.2010000000	stable and
0.2010000000	tasks using
0.2010000000	specifically for
0.2010000000	scores for
0.2010000000	limitation of
0.2010000000	retrieved from
0.2010000000	priors and
0.2010000000	syntax and
0.2010000000	initialization and
0.2010000000	with policy
0.2010000000	similar or
0.2010000000	and nmt
0.2010000000	non visual
0.2010000000	and fourier
0.2010000000	classification on
0.2010000000	and pruning
0.2010000000	with 3d
0.2010000000	and kernel
0.2010000000	and neurons
0.2010000000	with user
0.2010000000	shapes and
0.2010000000	and activities
0.2010000000	with belief
0.2010000000	situations in
0.2010000000	and landmark
0.2010000000	and optimization
0.2010000000	magnitude in
0.2010000000	networks using
0.2010000000	with aggregates
0.2010000000	and vgg
0.2010000000	non target
0.2010000000	and protein
0.2010000000	with speech
0.2010000000	error in
0.2010000000	picture of
0.2010000000	d 3
0.2010000000	inner loop
0.2010000000	times of
0.2010000000	a planning
0.2010000000	flow and
0.2010000000	a channel
0.2010000000	a gmm
0.2010000000	in argumentation
0.2010000000	a restaurant
0.2010000000	in cnn
0.2010000000	in input
0.2010000000	a fashion
0.2010000000	in domain
0.2010000000	a spatial
0.2010000000	in color
0.2010000000	a style
0.2010000000	in temporal
0.2010000000	in person
0.2010000000	a facial
0.2010000000	a relu
0.2010000000	in detection
0.2010000000	a nonlocal
0.2010000000	a place
0.2010000000	or target
0.2010000000	a programming
0.2010000000	in variables
0.2010000000	in tracking
0.2010000000	a laplacian
0.2010000000	filters and
0.2010000000	acting as
0.2010000000	simplicity and
0.2010000000	covered by
0.2000000000	automatic speech recognition asr system
0.2000000000	using deep neural networks
0.2000000000	the maximum likelihood estimate
0.2000000000	a novel form of
0.2000000000	a machine learning framework
0.2000000000	dataset as well as
0.2000000000	and easy to implement
0.2000000000	a large scale dataset
0.2000000000	the word error rate
0.2000000000	both classification and regression
0.2000000000	both speed and accuracy
0.2000000000	method for sparse
0.2000000000	optimization and learning
0.2000000000	and efficiency of
0.2000000000	the facial expressions
0.2000000000	several real world
0.2000000000	proposed approach and
0.2000000000	approaches such as
0.2000000000	attention mechanism on
0.2000000000	notion of consistency
0.2000000000	learning from noisy
0.2000000000	continuous relaxation of
0.2000000000	representation learning in
0.2000000000	an experimental comparison
0.2000000000	a sequence labeling
0.2000000000	an ell 1
0.2000000000	model learning and
0.2000000000	a fixed set
0.2000000000	in two steps
0.2000000000	a computational framework
0.2000000000	user s preferences
0.2000000000	distance measure between
0.2000000000	while still maintaining
0.2000000000	based methods to
0.2000000000	the iterative process
0.2000000000	number of false
0.2000000000	number of candidate
0.2000000000	and prediction accuracy
0.2000000000	and supervised learning
0.2000000000	a popular approach
0.2000000000	set of examples
0.2000000000	a much higher
0.2000000000	a formal model
0.2000000000	a fast algorithm
0.2000000000	face recognition by
0.2000000000	a u net
0.2000000000	of hyperspectral images
0.2000000000	a much simpler
0.2000000000	a popular method
0.2000000000	representations of images
0.2000000000	the cases of
0.2000000000	image retrieval with
0.2000000000	the joint probability
0.2000000000	different machine learning
0.2000000000	for multi task
0.2000000000	framework for video
0.2000000000	of smooth functions
0.2000000000	the convergence speed
0.2000000000	a limited set
0.2000000000	language models for
0.2000000000	three real world
0.2000000000	works very well
0.2000000000	based on pixel
0.2000000000	a stochastic optimization
0.2000000000	event detection in
0.2000000000	a self contained
0.2000000000	the more realistic
0.2000000000	the generative adversarial
0.2000000000	the learning task
0.2000000000	the proposed system
0.2000000000	3d fully convolutional
0.2000000000	models of meaning
0.2000000000	development of algorithms
0.2000000000	kernel learning for
0.2000000000	edge detection in
0.2000000000	and artificial intelligence
0.2000000000	the two algorithms
0.2000000000	obtain state of
0.2000000000	a simple approach
0.2000000000	the labeled data
0.2000000000	the original graph
0.2000000000	the mean shift
0.2000000000	the linear combination
0.2000000000	the price of
0.2000000000	the stochastic gradient
0.2000000000	performs very well
0.2000000000	a least squares
0.2000000000	feature learning by
0.2000000000	the early detection
0.2000000000	the entire set
0.2000000000	shown to improve
0.2000000000	wasserstein distance between
0.2000000000	many machine learning
0.2000000000	long term and
0.2000000000	categories of
0.2000000000	still lacking
0.2000000000	this hierarchy
0.2000000000	depth of
0.2000000000	discriminate between
0.2000000000	mapping from
0.2000000000	continues to
0.2000000000	machine and
0.2000000000	mapping and
0.2000000000	unsupervised and
0.2000000000	estimated using
0.2000000000	columns of
0.2000000000	vision for
0.2000000000	deep 3d
0.2000000000	for plan
0.2000000000	on tensor
0.2000000000	on top
0.2000000000	invariance of
0.2000000000	edges in
0.2000000000	the estimated
0.2000000000	compete against
0.2000000000	the restaurant
0.2000000000	the arguments
0.2000000000	the track
0.2000000000	the routing
0.2000000000	the parse
0.2000000000	the lp
0.2000000000	focus of
0.2000000000	the fmri
0.2000000000	desktop computer
0.2000000000	methods using
0.2000000000	uncertainty of
0.2000000000	sufficient and
0.2000000000	slightly better
0.2000000000	linear system
0.2000000000	supposed to
0.2000000000	facets of
0.2000000000	advantages and
0.2000000000	action and
0.2000000000	of place
0.2000000000	of negative
0.2000000000	of synaptic
0.2000000000	automatic and
0.2000000000	of survival
0.2000000000	learn more
0.2000000000	method used
0.2000000000	propose new
0.2000000000	of dependency
0.2000000000	of deterministic
0.2000000000	of lbp
0.2000000000	of tensor
0.2000000000	scales with
0.2000000000	of skeleton
0.2000000000	improvements to
0.2000000000	allen s
0.2000000000	solve such
0.2000000000	concepts of
0.2000000000	issues of
0.2000000000	data show
0.2000000000	these networks
0.2000000000	occam s
0.2000000000	newton s
0.2000000000	exact and
0.2000000000	scientific and
0.2000000000	acquisition of
0.2000000000	dataset containing
0.2000000000	introduced and
0.2000000000	similarity to
0.2000000000	graph of
0.2000000000	character and
0.2000000000	waiting time
0.2000000000	relation to
0.2000000000	regions with
0.2000000000	n k
0.2000000000	and hash
0.2000000000	and questions
0.2000000000	and group
0.2000000000	selected according
0.2000000000	whole brain
0.2000000000	similarities and
0.2000000000	sequences and
0.2000000000	a cluster
0.2000000000	a cp
0.2000000000	a motion
0.2000000000	a speaker
0.2000000000	a top
0.2000000000	a stochastic
0.2000000000	function used
0.1990000000	tracking algorithm based on
0.1990000000	in order to understand
0.1990000000	the ability to process
0.1990000000	the ability to predict
0.1990000000	improvement over state of
0.1990000000	of real world problems
0.1990000000	defined in terms of
0.1990000000	the overall performance of
0.1990000000	an essential component
0.1990000000	the hidden layers
0.1990000000	an essential step
0.1990000000	an online learning
0.1990000000	the complementary information
0.1990000000	a larger class
0.1990000000	an np hard
0.1990000000	the large volume
0.1990000000	the large scale
0.1990000000	the maximum number
0.1990000000	3d human action
0.1990000000	high quality 3d
0.1990000000	two real world
0.1990000000	3d reconstruction from
0.1990000000	using fully convolutional
0.1990000000	a broad family
0.1990000000	to incorporate prior
0.1990000000	the resulting algorithm
0.1990000000	this paper develops
0.1990000000	contextual bandits with
0.1990000000	this paper shows
0.1990000000	a powerful framework
0.1990000000	a fixed number
0.1990000000	a virtual environment
0.1990000000	probability at least
0.1990000000	a major problem
0.1990000000	a computational approach
0.1990000000	the spatial domain
0.1990000000	the methodology of
0.1990000000	the specific case
0.1990000000	the closed form
0.1990000000	for single image
0.1990000000	for multiple instance
0.1990000000	this article describes
0.1990000000	the target object
0.1990000000	no prior knowledge
0.1990000000	data for training
0.1990000000	the challenging task
0.1990000000	the preferences of
0.1990000000	from high dimensional
0.1990000000	the general problem
0.1990000000	a supervised machine
0.1990000000	with large numbers
0.1990000000	and fine tune
0.1990000000	a flexible framework
0.1990000000	a theoretical basis
0.1990000000	a weighted sum
0.1990000000	a formal framework
0.1990000000	a nearest neighbor
0.1990000000	a piecewise linear
0.1990000000	a robust method
0.1990000000	a general theory
0.1990000000	a general class
0.1990000000	in multiple languages
0.1990000000	a complete set
0.1990000000	in remote sensing
0.1990000000	a general methodology
0.1990000000	for natural language
0.1990000000	even more challenging
0.1990000000	n gram language
0.1990000000	and multi class
0.1990000000	the posterior probability
0.1990000000	the temporal domain
0.1990000000	an exponential number
0.1990000000	efficient algorithms for
0.1990000000	from natural language
0.1990000000	the negative log
0.1990000000	the limited number
0.1990000000	the weighted sum
0.1990000000	the removal of
0.1990000000	a statistical analysis
0.1990000000	a stochastic gradient
0.1990000000	from 2d images
0.1990000000	a well understood
0.1990000000	a relatively large
0.1990000000	a model trained
0.1990000000	a priori knowledge
0.1990000000	sentiment analysis of
0.1990000000	of high dimensional
0.1990000000	least square problem
0.1990000000	a sufficient number
0.1990000000	a large database
0.1990000000	a large family
0.1990000000	the features extracted
0.1990000000	a large range
0.1990000000	the belief propagation
0.1990000000	the theoretical results
0.1990000000	the method consists
0.1990000000	the transition probabilities
0.1990000000	for semi supervised
0.1990000000	the electronic health
0.1990000000	better generalization ability
0.1990000000	a unified view
0.1990000000	in image classification
0.1990000000	the internet of
0.1990000000	for weakly supervised
0.1990000000	in natural language
0.1990000000	in multi task
0.1990000000	better generalization performance
0.1990000000	with increasing number
0.1990000000	the decision making
0.1990000000	the paper deals
0.1990000000	for real world
0.1990000000	for gaussian mixture
0.1990000000	sequence models for
0.1990000000	with high dimensional
0.1990000000	an efficient implementation
0.1990000000	an important property
0.1990000000	an important issue
0.1990000000	to quickly identify
0.1990000000	an important feature
0.1990000000	large amount of
0.1990000000	using real world
0.1990000000	the dynamical system
0.1990000000	the art neural
0.1990000000	the art speech
0.1990000000	the art single
0.1990000000	for spectral clustering
0.1990000000	for empirical risk
0.1990000000	correlation among
0.1990000000	bandit and
0.1990000000	larger and
0.1990000000	challenging to
0.1990000000	generalize better
0.1990000000	models need
0.1990000000	sensors and
0.1990000000	software and
0.1990000000	accuracy over
0.1990000000	challenging computer
0.1990000000	model used
0.1990000000	model from
0.1990000000	this scheme
0.1990000000	processing time
0.1990000000	present and
0.1990000000	this matrix
0.1990000000	indexing and
0.1990000000	source to
0.1990000000	question and
0.1990000000	single and
0.1990000000	case by
0.1990000000	roles and
0.1990000000	hardware and
0.1990000000	3 4
0.1990000000	allowing one
0.1990000000	identical to
0.1990000000	results do
0.1990000000	results but
0.1990000000	exponentially with
0.1990000000	conform to
0.1990000000	w net
0.1990000000	important yet
0.1990000000	signal to
0.1990000000	systems need
0.1990000000	introduction of
0.1990000000	setting as
0.1990000000	the budget
0.1990000000	the conll
0.1990000000	the momentum
0.1990000000	important part
0.1990000000	the products
0.1990000000	the natural
0.1990000000	the novel
0.1990000000	regularized by
0.1990000000	the well
0.1990000000	german and
0.1990000000	vanishing and
0.1990000000	continuous and
0.1990000000	information between
0.1990000000	sets as
0.1990000000	detected in
0.1990000000	retrieval of
0.1990000000	limit and
0.1990000000	discrepancies between
0.1990000000	provided in
0.1990000000	existence and
0.1990000000	of message
0.1990000000	complex non
0.1990000000	of shape
0.1990000000	low and
0.1990000000	particularly important
0.1990000000	propose several
0.1990000000	thus enabling
0.1990000000	vertices in
0.1990000000	stemming from
0.1990000000	compact and
0.1990000000	data along
0.1990000000	automatically from
0.1990000000	these relations
0.1990000000	an auction
0.1990000000	an hmm
0.1990000000	significant amount
0.1990000000	generator and
0.1990000000	to retain
0.1990000000	surge of
0.1990000000	locations in
0.1990000000	contribution to
0.1990000000	thoroughly investigated
0.1990000000	images but
0.1990000000	arise due
0.1990000000	and noise
0.1990000000	obtained on
0.1990000000	rules from
0.1990000000	associations between
0.1990000000	predictions made
0.1990000000	with k
0.1990000000	overlapping and
0.1990000000	imaging and
0.1990000000	a heterogeneous
0.1990000000	a smart
0.1990000000	a local
0.1990000000	a fair
0.1990000000	a close
0.1990000000	a remarkable
0.1990000000	a generator
0.1990000000	a collaborative
0.1990000000	a concise
0.1990000000	run in
0.1990000000	detection on
0.1990000000	richer and
0.1990000000	monotonicity of
0.1980000000	an end to end deep
0.1980000000	the underlying structure of
0.1980000000	an easy to use
0.1980000000	the joint distribution of
0.1980000000	a sparse set of
0.1980000000	the number of observed
0.1980000000	the prior knowledge of
0.1980000000	a rich set of
0.1980000000	the generalization capability
0.1980000000	an essential role
0.1980000000	an improved version
0.1980000000	a critical role
0.1980000000	an algorithm based
0.1980000000	the computational efficiency
0.1980000000	clustering algorithm in
0.1980000000	the recent success
0.1980000000	the data sparsity
0.1980000000	a fundamental role
0.1980000000	the data generating
0.1980000000	the representation power
0.1980000000	the average accuracy
0.1980000000	the recent advances
0.1980000000	a partial differential
0.1980000000	and particle swarm
0.1980000000	a fundamental task
0.1980000000	an approach based
0.1980000000	using convolutional neural
0.1980000000	the large number
0.1980000000	the compact genetic
0.1980000000	the percentage of
0.1980000000	the recent progress
0.1980000000	the data collected
0.1980000000	this approach leads
0.1980000000	also present results
0.1980000000	the geometric structure
0.1980000000	an unknown number
0.1980000000	the artificial neural
0.1980000000	a linear convergence
0.1980000000	able to improve
0.1980000000	this paper examines
0.1980000000	various natural language
0.1980000000	with linear function
0.1980000000	with generative adversarial
0.1980000000	the main features
0.1980000000	and principal component
0.1980000000	optimization algorithms in
0.1980000000	used for training
0.1980000000	approach to object
0.1980000000	object detection in
0.1980000000	a broad set
0.1980000000	using deep learning
0.1980000000	the main objective
0.1980000000	structure in data
0.1980000000	the main focus
0.1980000000	this paper deals
0.1980000000	using answer set
0.1980000000	the main advantage
0.1980000000	the main goal
0.1980000000	the main drawback
0.1980000000	the resulting optimization
0.1980000000	the information contained
0.1980000000	the information content
0.1980000000	kinds of knowledge
0.1980000000	stochastic first order
0.1980000000	a simulation of
0.1980000000	computer vision speech
0.1980000000	a small fraction
0.1980000000	a small portion
0.1980000000	the increasing popularity
0.1980000000	an energy minimization
0.1980000000	to transfer knowledge
0.1980000000	an extensive set
0.1980000000	an extensive evaluation
0.1980000000	an extensive analysis
0.1980000000	for facial expression
0.1980000000	the variation of
0.1980000000	of convolutional neural
0.1980000000	the increasing availability
0.1980000000	an arbitrary number
0.1980000000	the discriminative power
0.1980000000	in deep neural
0.1980000000	the first layer
0.1980000000	a key problem
0.1980000000	an extensive experimental
0.1980000000	by taking advantage
0.1980000000	a major role
0.1980000000	a powerful method
0.1980000000	a pre processing
0.1980000000	the web ontology
0.1980000000	an extended version
0.1980000000	online learning with
0.1980000000	the discriminative ability
0.1980000000	the first method
0.1980000000	the predictive accuracy
0.1980000000	the increasing number
0.1980000000	the credibility of
0.1980000000	model does not
0.1980000000	and natural language
0.1980000000	data and propose
0.1980000000	number of solutions
0.1980000000	the challenging problem
0.1980000000	the internal structure
0.1980000000	the restricted boltzmann
0.1980000000	the great potential
0.1980000000	the log partition
0.1980000000	a popular tool
0.1980000000	a weighted combination
0.1980000000	set of words
0.1980000000	a common set
0.1980000000	a common problem
0.1980000000	very deep convolutional
0.1980000000	a theoretical justification
0.1980000000	networks and in
0.1980000000	a deep generative
0.1980000000	a high number
0.1980000000	a wide array
0.1980000000	a formal definition
0.1980000000	a significant impact
0.1980000000	a conditional random
0.1980000000	the practical performance
0.1980000000	a natural generalization
0.1980000000	a markov random
0.1980000000	a comprehensive evaluation
0.1980000000	a comprehensive analysis
0.1980000000	a comprehensive overview
0.1980000000	a formal description
0.1980000000	a combinatorial optimization
0.1980000000	a significant role
0.1980000000	a near optimal
0.1980000000	the wide range
0.1980000000	a significant increase
0.1980000000	a convex combination
0.1980000000	a deep neural
0.1980000000	a comprehensive set
0.1980000000	a conditional generative
0.1980000000	a markov decision
0.1980000000	a dataset consisting
0.1980000000	a natural extension
0.1980000000	a deeper understanding
0.1980000000	a variable number
0.1980000000	a compact representation
0.1980000000	a comprehensive review
0.1980000000	a complete characterization
0.1980000000	a significant number
0.1980000000	a significant reduction
0.1980000000	appearance and shape
0.1980000000	a deep residual
0.1980000000	the experiment results
0.1980000000	for salient object
0.1980000000	the histogram of
0.1980000000	the hierarchical dirichlet
0.1980000000	an f1 score
0.1980000000	the statistical properties
0.1980000000	an average accuracy
0.1980000000	the visual quality
0.1980000000	the temporal structure
0.1980000000	models such as
0.1980000000	and translation of
0.1980000000	the human visual
0.1980000000	real time bidding
0.1980000000	a huge number
0.1980000000	a reduced number
0.1980000000	and recent advances
0.1980000000	real time tracking
0.1980000000	an average error
0.1980000000	with support vector
0.1980000000	and compares favorably
0.1980000000	and first order
0.1980000000	data analysis in
0.1980000000	well studied problem
0.1980000000	the most accurate
0.1980000000	the major problems
0.1980000000	the total number
0.1980000000	the temporal evolution
0.1980000000	the samples in
0.1980000000	the most effective
0.1980000000	the most prominent
0.1980000000	the high complexity
0.1980000000	the global structure
0.1980000000	a restricted boltzmann
0.1980000000	the empirical performance
0.1980000000	the high dimensionality
0.1980000000	a classification accuracy
0.1980000000	a polynomial number
0.1980000000	a standard approach
0.1980000000	a minimal number
0.1980000000	without prior knowledge
0.1980000000	in medical image
0.1980000000	a diverse range
0.1980000000	a hidden markov
0.1980000000	a dynamic bayesian
0.1980000000	a generalized version
0.1980000000	a great success
0.1980000000	based on convolutional
0.1980000000	a decision support
0.1980000000	a probabilistic graphical
0.1980000000	a probabilistic interpretation
0.1980000000	the topological properties
0.1980000000	the high degree
0.1980000000	the semantic content
0.1980000000	for neural machine
0.1980000000	for solving large
0.1980000000	for reading comprehension
0.1980000000	five real world
0.1980000000	both simulated data
0.1980000000	reasoning about actions
0.1980000000	the intrinsic structure
0.1980000000	a naive bayes
0.1980000000	a large fraction
0.1980000000	a rich set
0.1980000000	a considerable number
0.1980000000	a constant number
0.1980000000	the automatic recognition
0.1980000000	a large portion
0.1980000000	a large variety
0.1980000000	better performance compared
0.1980000000	a rich class
0.1980000000	soft q learning
0.1980000000	the original high
0.1980000000	a qualitative analysis
0.1980000000	classes of problems
0.1980000000	a large body
0.1980000000	for deep neural
0.1980000000	a rich source
0.1980000000	a modified version
0.1980000000	the automatic identification
0.1980000000	the automatic detection
0.1980000000	the theoretical properties
0.1980000000	for deep reinforcement
0.1980000000	for gaussian process
0.1980000000	this problem based
0.1980000000	t regret bound
0.1980000000	a special class
0.1980000000	a single forward
0.1980000000	the world wide
0.1980000000	and generative adversarial
0.1980000000	a simplified version
0.1980000000	a special type
0.1980000000	the presented algorithm
0.1980000000	in multi label
0.1980000000	and fully connected
0.1980000000	and competitive results
0.1980000000	a smaller number
0.1980000000	for autonomous vehicles
0.1980000000	a single set
0.1980000000	a multi armed
0.1980000000	the multi armed
0.1980000000	for statistical machine
0.1980000000	both synthetic data
0.1980000000	a method based
0.1980000000	a single rgb
0.1980000000	a constrained optimization
0.1980000000	on standard benchmark
0.1980000000	the paper concludes
0.1980000000	the experiments conducted
0.1980000000	for automatic speech
0.1980000000	for ell 1
0.1980000000	spectral norm of
0.1980000000	an important class
0.1980000000	the current version
0.1980000000	an important topic
0.1980000000	an important area
0.1980000000	the art models
0.1980000000	an important aspect
0.1980000000	2d pose estimation
0.1980000000	the art hashing
0.1980000000	and recurrent neural
0.1980000000	an efficient learning
0.1980000000	with answer set
0.1980000000	an error rate
0.1980000000	bound of order
0.1980000000	an important component
0.1980000000	the emerging field
0.1980000000	the relative importance
0.1980000000	the relative merits
0.1980000000	the underlying structure
0.1980000000	the best reported
0.1980000000	the model consists
0.1980000000	the art machine
0.1980000000	performance comparable to
0.1980000000	show significant improvement
0.1980000000	english and
0.1980000000	nearly identical
0.1980000000	jointly with
0.1980000000	past and
0.1980000000	this constraint
0.1980000000	new data
0.1980000000	this notion
0.1980000000	nonlinear system
0.1980000000	this training
0.1980000000	this review
0.1980000000	shared across
0.1980000000	other domains
0.1980000000	model such
0.1980000000	model using
0.1980000000	this difficulty
0.1980000000	model does
0.1980000000	then present
0.1980000000	models used
0.1980000000	computed with
0.1980000000	bias in
0.1980000000	consisted of
0.1980000000	overall accuracy
0.1980000000	novel prior
0.1980000000	use case
0.1980000000	performance using
0.1980000000	environment and
0.1980000000	single or
0.1980000000	different categories
0.1980000000	layers with
0.1980000000	three datasets
0.1980000000	different strategies
0.1980000000	several existing
0.1980000000	two independent
0.1980000000	2 ldots
0.1980000000	two phases
0.1980000000	as tensor
0.1980000000	stochastic and
0.1980000000	high and
0.1980000000	p m
0.1980000000	redundancy in
0.1980000000	3d scenes
0.1980000000	replaced with
0.1980000000	visualizing and
0.1980000000	each block
0.1980000000	for quantum
0.1980000000	exponential time
0.1980000000	machines for
0.1980000000	resources and
0.1980000000	simulations and
0.1980000000	for calculating
0.1980000000	on manifolds
0.1980000000	for networks
0.1980000000	many signal
0.1980000000	for rl
0.1980000000	hard and
0.1980000000	for subspace
0.1980000000	for privacy
0.1980000000	demand for
0.1980000000	on topic
0.1980000000	for consistency
0.1980000000	for metric
0.1980000000	for complex
0.1980000000	for probabilistic
0.1980000000	k error
0.1980000000	from thousands
0.1980000000	for inference
0.1980000000	each document
0.1980000000	examples from
0.1980000000	each input
0.1980000000	each sub
0.1980000000	for prediction
0.1980000000	proposals to
0.1980000000	condition for
0.1980000000	products and
0.1980000000	follow up
0.1980000000	the red
0.1980000000	the reaction
0.1980000000	the aesthetic
0.1980000000	the clean
0.1980000000	sizes to
0.1980000000	simulation and
0.1980000000	experimenting with
0.1980000000	the guidelines
0.1980000000	the exposure
0.1980000000	the crf
0.1980000000	the survival
0.1980000000	the bp
0.1980000000	the boosting
0.1980000000	some important
0.1980000000	the strongest
0.1980000000	the prototypes
0.1980000000	the re
0.1980000000	the rl
0.1980000000	the successful
0.1980000000	the bootstrap
0.1980000000	the tags
0.1980000000	the variants
0.1980000000	simpler than
0.1980000000	not directly
0.1980000000	some specific
0.1980000000	the root
0.1980000000	some preliminary
0.1980000000	the extreme
0.1980000000	the algorithmic
0.1980000000	the hardest
0.1980000000	the improved
0.1980000000	the biological
0.1980000000	the pde
0.1980000000	the neurons
0.1980000000	the mse
0.1980000000	the activities
0.1980000000	the hypotheses
0.1980000000	the platform
0.1980000000	the current
0.1980000000	the views
0.1980000000	the stanford
0.1980000000	the discovered
0.1980000000	the critical
0.1980000000	the protocol
0.1980000000	the fairness
0.1980000000	the canonical
0.1980000000	the fcn
0.1980000000	the reasons
0.1980000000	the eigen
0.1980000000	m p
0.1980000000	embedding for
0.1980000000	spectrum of
0.1980000000	recall and
0.1980000000	researchers and
0.1980000000	balance between
0.1980000000	neurons and
0.1980000000	exploited to
0.1980000000	make decisions
0.1980000000	strategies and
0.1980000000	methods need
0.1980000000	methods do
0.1980000000	geometry and
0.1980000000	topics with
0.1980000000	system in
0.1980000000	such approaches
0.1980000000	languages as
0.1980000000	literature on
0.1980000000	of self
0.1980000000	of solving
0.1980000000	of code
0.1980000000	generated using
0.1980000000	no single
0.1980000000	shape of
0.1980000000	co training
0.1980000000	connected by
0.1980000000	disciplines such
0.1980000000	semantic and
0.1980000000	very expensive
0.1980000000	of surrogate
0.1980000000	of contextual
0.1980000000	of distributions
0.1980000000	of fingerprints
0.1980000000	via deep
0.1980000000	of street
0.1980000000	of smt
0.1980000000	more easily
0.1980000000	of options
0.1980000000	of diverse
0.1980000000	of traffic
0.1980000000	of pictures
0.1980000000	computer programs
0.1980000000	of labeled
0.1980000000	of relation
0.1980000000	of common
0.1980000000	of relevant
0.1980000000	importance of
0.1980000000	of dialogue
0.1980000000	of weather
0.1980000000	of case
0.1980000000	adapts to
0.1980000000	of rough
0.1980000000	of unlabeled
0.1980000000	estimator for
0.1980000000	of entropy
0.1980000000	of determining
0.1980000000	improvements over
0.1980000000	general and
0.1980000000	method does
0.1980000000	views to
0.1980000000	index as
0.1980000000	subjective and
0.1980000000	adoption of
0.1980000000	trees and
0.1980000000	to regress
0.1980000000	these experiments
0.1980000000	to follow
0.1980000000	sample from
0.1980000000	data used
0.1980000000	intersection over
0.1980000000	to correct
0.1980000000	an expressive
0.1980000000	an embedded
0.1980000000	speaker and
0.1980000000	approaches do
0.1980000000	to organize
0.1980000000	to emulate
0.1980000000	to hold
0.1980000000	to differentiate
0.1980000000	to accurately
0.1980000000	any existing
0.1980000000	an analytic
0.1980000000	to explicitly
0.1980000000	instance of
0.1980000000	an augmented
0.1980000000	directly in
0.1980000000	an inherent
0.1980000000	to adaptively
0.1980000000	an appealing
0.1980000000	to reflect
0.1980000000	to complete
0.1980000000	an elementary
0.1980000000	an observation
0.1980000000	to probability
0.1980000000	to relational
0.1980000000	train and
0.1980000000	little attention
0.1980000000	drawback of
0.1980000000	incorporation of
0.1980000000	constructed using
0.1980000000	backpropagation through
0.1980000000	employed to
0.1980000000	combined into
0.1980000000	solely on
0.1980000000	working with
0.1980000000	time points
0.1980000000	rates for
0.1980000000	engineering and
0.1980000000	also establish
0.1980000000	guarantees on
0.1980000000	by designing
0.1980000000	also apply
0.1980000000	addressed in
0.1980000000	weighted least
0.1980000000	also analyze
0.1980000000	by character
0.1980000000	also called
0.1980000000	by measuring
0.1980000000	features used
0.1980000000	features at
0.1980000000	features but
0.1980000000	relations in
0.1980000000	by studying
0.1980000000	by predicting
0.1980000000	also study
0.1980000000	sparsity of
0.1980000000	better accuracy
0.1980000000	aggregation of
0.1980000000	content for
0.1980000000	groups and
0.1980000000	guarantees of
0.1980000000	implemented and
0.1980000000	composition of
0.1980000000	part based
0.1980000000	non experts
0.1980000000	appearance of
0.1980000000	and category
0.1980000000	gains in
0.1980000000	and simple
0.1980000000	and diverse
0.1980000000	and speed
0.1980000000	non euclidean
0.1980000000	and statistical
0.1980000000	and optimize
0.1980000000	and extract
0.1980000000	with continuous
0.1980000000	with additional
0.1980000000	and training
0.1980000000	and global
0.1980000000	and discusses
0.1980000000	and retrieval
0.1980000000	bayesian non
0.1980000000	and ontology
0.1980000000	and complex
0.1980000000	common to
0.1980000000	and translations
0.1980000000	and clustering
0.1980000000	and performs
0.1980000000	identified as
0.1980000000	ai to
0.1980000000	during learning
0.1980000000	strengths of
0.1980000000	evolve over
0.1980000000	implied by
0.1980000000	split into
0.1980000000	translated into
0.1980000000	1 times
0.1980000000	a viable
0.1980000000	effectively and
0.1980000000	analysis in
0.1980000000	variance of
0.1980000000	confirmed by
0.1980000000	in ai
0.1980000000	tests on
0.1980000000	indicative of
0.1980000000	a calculus
0.1980000000	a valid
0.1980000000	a deeper
0.1980000000	occur due
0.1980000000	a sound
0.1980000000	detection with
0.1980000000	a multivariate
0.1980000000	videos of
0.1980000000	a relative
0.1980000000	a careful
0.1980000000	a main
0.1980000000	a declarative
0.1980000000	a scientific
0.1980000000	a broader
0.1980000000	a 1
0.1980000000	a system
0.1980000000	in depth
0.1980000000	in images
0.1980000000	maps and
0.1980000000	in constraint
0.1980000000	a hidden
0.1980000000	a surrogate
0.1980000000	a custom
0.1980000000	a lightweight
0.1980000000	in detecting
0.1980000000	1 000
0.1980000000	in complex
0.1980000000	update and
0.1980000000	a drug
0.1980000000	a calibration
0.1980000000	a profile
0.1980000000	detect and
0.1980000000	fragments of
0.1980000000	sublinear time
0.1980000000	analogue of
0.1970000000	computer aided diagnosis cad system
0.1970000000	results on publicly available
0.1970000000	the problem of inferring
0.1970000000	the problem of identifying
0.1970000000	the problem of predicting
0.1970000000	from one language to
0.1970000000	the agent s actions
0.1970000000	the task of predicting
0.1970000000	the number of states
0.1970000000	based features and
0.1970000000	used to detect
0.1970000000	visual features in
0.1970000000	to automatically learn
0.1970000000	the orientation of
0.1970000000	able to outperform
0.1970000000	head pose and
0.1970000000	a novel technique
0.1970000000	experiments on two
0.1970000000	em algorithm and
0.1970000000	learning mixtures of
0.1970000000	of dempster shafer
0.1970000000	a definition of
0.1970000000	and solution quality
0.1970000000	phrase based and
0.1970000000	face images in
0.1970000000	the results showed
0.1970000000	the spatio temporal
0.1970000000	of transfer learning
0.1970000000	information as well
0.1970000000	the most promising
0.1970000000	the most recent
0.1970000000	deep learning in
0.1970000000	this work introduces
0.1970000000	the learning problem
0.1970000000	the k nn
0.1970000000	making use of
0.1970000000	results as well
0.1970000000	detection performance of
0.1970000000	learning problems in
0.1970000000	the convexity of
0.1970000000	the proposed multi
0.1970000000	kernel methods for
0.1970000000	the responses of
0.1970000000	and slab priors
0.1970000000	decide whether to
0.1970000000	approach builds on
0.1970000000	ensemble methods for
0.1970000000	the video content
0.1970000000	tasks as well
0.1970000000	the new proposed
0.1970000000	the multi dimensional
0.1970000000	algorithm for finding
0.1970000000	selection methods for
0.1970000000	the rank function
0.1970000000	second order statistics
0.1970000000	interactions among
0.1970000000	highly non
0.1970000000	algorithm using
0.1970000000	pre and
0.1970000000	this dissertation
0.1970000000	algorithm does
0.1970000000	behavior and
0.1970000000	signals from
0.1970000000	learned using
0.1970000000	representations in
0.1970000000	computed in
0.1970000000	sub sampling
0.1970000000	this shortcoming
0.1970000000	algorithm only
0.1970000000	this subspace
0.1970000000	trained only
0.1970000000	this insight
0.1970000000	other applications
0.1970000000	word co
0.1970000000	depth or
0.1970000000	estimators for
0.1970000000	new tasks
0.1970000000	knowledge such
0.1970000000	generative and
0.1970000000	model as
0.1970000000	corpus and
0.1970000000	performed better
0.1970000000	signals such
0.1970000000	signals and
0.1970000000	measurement of
0.1970000000	members of
0.1970000000	scale well
0.1970000000	scale and
0.1970000000	datasets of
0.1970000000	performances of
0.1970000000	captured from
0.1970000000	expensive to
0.1970000000	points on
0.1970000000	empirical and
0.1970000000	classified as
0.1970000000	combination with
0.1970000000	strong and
0.1970000000	classified into
0.1970000000	introduce and
0.1970000000	different scenarios
0.1970000000	basis for
0.1970000000	layers in
0.1970000000	framework and
0.1970000000	several approaches
0.1970000000	localization of
0.1970000000	natural looking
0.1970000000	two classes
0.1970000000	grounded in
0.1970000000	two algorithms
0.1970000000	extensive use
0.1970000000	algorithms used
0.1970000000	confronted with
0.1970000000	ontology in
0.1970000000	3d bounding
0.1970000000	point to
0.1970000000	occurrences of
0.1970000000	suited to
0.1970000000	optimized for
0.1970000000	implications of
0.1970000000	labeling of
0.1970000000	essential to
0.1970000000	exponential in
0.1970000000	types and
0.1970000000	dynamics and
0.1970000000	weights associated
0.1970000000	each variable
0.1970000000	each point
0.1970000000	for simultaneous
0.1970000000	validation of
0.1970000000	artificial and
0.1970000000	fields of
0.1970000000	3 times
0.1970000000	collected by
0.1970000000	for regression
0.1970000000	for combining
0.1970000000	occlusions and
0.1970000000	requirements of
0.1970000000	insights from
0.1970000000	classifiers for
0.1970000000	results to
0.1970000000	control and
0.1970000000	for minimizing
0.1970000000	each round
0.1970000000	for continuous
0.1970000000	for accurate
0.1970000000	considered to
0.1970000000	on board
0.1970000000	insights about
0.1970000000	transformation of
0.1970000000	techniques from
0.1970000000	each region
0.1970000000	written by
0.1970000000	examples and
0.1970000000	emergence of
0.1970000000	simulations show
0.1970000000	the uav
0.1970000000	grouped together
0.1970000000	choices of
0.1970000000	theoretically and
0.1970000000	the inter
0.1970000000	simulation of
0.1970000000	the transformations
0.1970000000	the compared
0.1970000000	sensitivity of
0.1970000000	annotation of
0.1970000000	the suggested
0.1970000000	the introduced
0.1970000000	comparing with
0.1970000000	systems do
0.1970000000	inference with
0.1970000000	the formal
0.1970000000	the intuition
0.1970000000	the electricity
0.1970000000	not sufficient
0.1970000000	reduces to
0.1970000000	some extent
0.1970000000	the analytical
0.1970000000	precision of
0.1970000000	the inferred
0.1970000000	the complementary
0.1970000000	most current
0.1970000000	most important
0.1970000000	the induced
0.1970000000	group of
0.1970000000	the famous
0.1970000000	the inputs
0.1970000000	the official
0.1970000000	the premise
0.1970000000	the logical
0.1970000000	the transformed
0.1970000000	the maximal
0.1970000000	the patients
0.1970000000	the emerging
0.1970000000	some examples
0.1970000000	technique used
0.1970000000	matrix m
0.1970000000	the learnt
0.1970000000	exploited in
0.1970000000	using standard
0.1970000000	cost and
0.1970000000	components and
0.1970000000	optimization with
0.1970000000	exploited for
0.1970000000	information associated
0.1970000000	theories of
0.1970000000	embedding of
0.1970000000	query time
0.1970000000	yields more
0.1970000000	perception and
0.1970000000	such information
0.1970000000	topics and
0.1970000000	learning via
0.1970000000	over traditional
0.1970000000	optimization for
0.1970000000	methods like
0.1970000000	standard k
0.1970000000	methods used
0.1970000000	sufficient for
0.1970000000	context and
0.1970000000	small changes
0.1970000000	converted to
0.1970000000	encoding of
0.1970000000	superiority over
0.1970000000	derivatives of
0.1970000000	sentiment from
0.1970000000	of similar
0.1970000000	estimation from
0.1970000000	of significant
0.1970000000	evaluation of
0.1970000000	operating on
0.1970000000	evaluation on
0.1970000000	of computation
0.1970000000	built using
0.1970000000	encoded as
0.1970000000	of partial
0.1970000000	alignment of
0.1970000000	of computational
0.1970000000	difficulties in
0.1970000000	built in
0.1970000000	of constructing
0.1970000000	of modeling
0.1970000000	improvements of
0.1970000000	of molecules
0.1970000000	of predicting
0.1970000000	of size
0.1970000000	propose three
0.1970000000	metrics for
0.1970000000	of topics
0.1970000000	result for
0.1970000000	of improving
0.1970000000	particularly challenging
0.1970000000	connection to
0.1970000000	metrics and
0.1970000000	study on
0.1970000000	criteria for
0.1970000000	periods of
0.1970000000	crisp and
0.1970000000	spectral and
0.1970000000	accomplished by
0.1970000000	proportion of
0.1970000000	experimented with
0.1970000000	determination of
0.1970000000	consideration of
0.1970000000	volume of
0.1970000000	exploitation of
0.1970000000	distance to
0.1970000000	consistency and
0.1970000000	challenge for
0.1970000000	an algebraic
0.1970000000	an accelerated
0.1970000000	formalisms such
0.1970000000	self supervision
0.1970000000	while reducing
0.1970000000	issues associated
0.1970000000	functions with
0.1970000000	concepts from
0.1970000000	these include
0.1970000000	often require
0.1970000000	significant interest
0.1970000000	an earlier
0.1970000000	to justify
0.1970000000	to existing
0.1970000000	to spatial
0.1970000000	to forecast
0.1970000000	to compose
0.1970000000	an observed
0.1970000000	an integer
0.1970000000	an increased
0.1970000000	approaches on
0.1970000000	thus making
0.1970000000	to offer
0.1970000000	an acceptable
0.1970000000	measure for
0.1970000000	often requires
0.1970000000	an advanced
0.1970000000	real and
0.1970000000	these difficulties
0.1970000000	these cases
0.1970000000	these tools
0.1970000000	challenge in
0.1970000000	tools from
0.1970000000	calls for
0.1970000000	imposed by
0.1970000000	idea of
0.1970000000	baselines on
0.1970000000	working on
0.1970000000	demonstrated in
0.1970000000	nonconvex and
0.1970000000	space time
0.1970000000	interpretability of
0.1970000000	vectors and
0.1970000000	by simply
0.1970000000	task at
0.1970000000	by examining
0.1970000000	by changing
0.1970000000	by aggregating
0.1970000000	by increasing
0.1970000000	by decomposing
0.1970000000	paired with
0.1970000000	also includes
0.1970000000	computationally more
0.1970000000	approach uses
0.1970000000	clearly demonstrate
0.1970000000	task such
0.1970000000	formulation for
0.1970000000	behaviour of
0.1970000000	meaning of
0.1970000000	current and
0.1970000000	also evaluate
0.1970000000	mechanisms for
0.1970000000	at random
0.1970000000	at high
0.1970000000	employed for
0.1970000000	approach allows
0.1970000000	images as
0.1970000000	locations of
0.1970000000	holds for
0.1970000000	content of
0.1970000000	selection in
0.1970000000	further improves
0.1970000000	coefficients of
0.1970000000	choice for
0.1970000000	000 images
0.1970000000	and verify
0.1970000000	and background
0.1970000000	obtained via
0.1970000000	obtained through
0.1970000000	common in
0.1970000000	recommendation system
0.1970000000	implemented with
0.1970000000	and malignant
0.1970000000	and device
0.1970000000	and phrase
0.1970000000	and potentially
0.1970000000	and avoid
0.1970000000	simulated and
0.1970000000	with linear
0.1970000000	with complex
0.1970000000	matches or
0.1970000000	part ii
0.1970000000	recurrent and
0.1970000000	and solve
0.1970000000	and compares
0.1970000000	and inference
0.1970000000	and explain
0.1970000000	and challenging
0.1970000000	and iv
0.1970000000	critical to
0.1970000000	perform very
0.1970000000	logic with
0.1970000000	moments of
0.1970000000	and produce
0.1970000000	investigate whether
0.1970000000	ai and
0.1970000000	diversity of
0.1970000000	diversity and
0.1970000000	deviations from
0.1970000000	potential for
0.1970000000	services such
0.1970000000	variables in
0.1970000000	works better
0.1970000000	four publicly
0.1970000000	links between
0.1970000000	in training
0.1970000000	issue of
0.1970000000	a cognitive
0.1970000000	discussion of
0.1970000000	a template
0.1970000000	a formula
0.1970000000	a dedicated
0.1970000000	in essence
0.1970000000	in modern
0.1970000000	a dialogue
0.1970000000	a versatile
0.1970000000	a transformation
0.1970000000	a nonconvex
0.1970000000	a slight
0.1970000000	a scenario
0.1970000000	or better
0.1970000000	starts with
0.1970000000	a vehicle
0.1970000000	a consensus
0.1970000000	a bounded
0.1970000000	selected by
0.1970000000	a conceptual
0.1970000000	a weak
0.1970000000	a sufficient
0.1970000000	a trained
0.1970000000	a massive
0.1970000000	evaluations of
0.1970000000	a predictor
0.1970000000	in english
0.1970000000	run on
0.1970000000	encoder and
0.1970000000	crossover and
0.1970000000	referring to
0.1970000000	attached to
0.1960000000	the number of parameters and
0.1960000000	the objects of interest
0.1960000000	synthetic as well as
0.1960000000	several benchmark data sets
0.1960000000	dempster s rule of
0.1960000000	a variety of applications
0.1960000000	the problem of recovering
0.1960000000	the problem of detecting
0.1960000000	of local and global
0.1960000000	the context of learning
0.1960000000	as deep neural networks
0.1960000000	in person re identification
0.1960000000	of active learning
0.1960000000	the columns of
0.1960000000	convergence rates and
0.1960000000	approaches as well
0.1960000000	methods as well
0.1960000000	algorithms as well
0.1960000000	word similarity and
0.1960000000	improvements of up
0.1960000000	performs much better
0.1960000000	the point of
0.1960000000	feature extractor and
0.1960000000	this paper considers
0.1960000000	this paper explores
0.1960000000	model as well
0.1960000000	systems as well
0.1960000000	problem of unsupervised
0.1960000000	the optimality of
0.1960000000	memory usage and
0.1960000000	sets as well
0.1960000000	publicly available at
0.1960000000	image inpainting and
0.1960000000	framework for deep
0.1960000000	similar performance to
0.1960000000	widely used for
0.1960000000	the optimal solution
0.1960000000	functions as well
0.1960000000	the most probable
0.1960000000	the most difficult
0.1960000000	parameters as well
0.1960000000	datasets as well
0.1960000000	recognition as well
0.1960000000	objects as well
0.1960000000	in belief networks
0.1960000000	data as well
0.1960000000	the proposed methodology
0.1960000000	the proposed scheme
0.1960000000	examples as well
0.1960000000	problems as well
0.1960000000	algorithms such as
0.1960000000	the research on
0.1960000000	surge of interest
0.1960000000	approach as well
0.1960000000	compared with other
0.1960000000	dataset as well
0.1960000000	built on top
0.1960000000	images as well
0.1960000000	method as well
0.1960000000	the art techniques
0.1960000000	performs as well
0.1960000000	method does not
0.1960000000	perform as well
0.1960000000	images with large
0.1960000000	the art classification
0.1960000000	domains such as
0.1960000000	limitations such
0.1960000000	direct use
0.1960000000	qualitatively and
0.1960000000	quantitative and
0.1960000000	defined in
0.1960000000	algorithm not
0.1960000000	categories such
0.1960000000	challenging because
0.1960000000	arises from
0.1960000000	tested with
0.1960000000	environments such
0.1960000000	technologies such
0.1960000000	platforms such
0.1960000000	flexible and
0.1960000000	algorithm such
0.1960000000	spaces and
0.1960000000	architectures such
0.1960000000	produce more
0.1960000000	sub gaussian
0.1960000000	cases such
0.1960000000	ratio of
0.1960000000	processing such
0.1960000000	models such
0.1960000000	challenging due
0.1960000000	both datasets
0.1960000000	solving such
0.1960000000	this perspective
0.1960000000	chinese to
0.1960000000	clinical time
0.1960000000	applications like
0.1960000000	models due
0.1960000000	models do
0.1960000000	models using
0.1960000000	starting with
0.1960000000	half of
0.1960000000	left and
0.1960000000	problems such
0.1960000000	domains such
0.1960000000	other algorithms
0.1960000000	accuracy due
0.1960000000	domains and
0.1960000000	cases of
0.1960000000	media such
0.1960000000	left to
0.1960000000	then introduce
0.1960000000	apply to
0.1960000000	this requires
0.1960000000	other techniques
0.1960000000	descriptors such
0.1960000000	layer by
0.1960000000	applications due
0.1960000000	algorithm known
0.1960000000	computed using
0.1960000000	modification of
0.1960000000	constraints such
0.1960000000	utilized for
0.1960000000	upper and
0.1960000000	schemes such
0.1960000000	scale to
0.1960000000	schemes for
0.1960000000	insensitive to
0.1960000000	criterion for
0.1960000000	captured in
0.1960000000	successful in
0.1960000000	compensate for
0.1960000000	pixels in
0.1960000000	mapping between
0.1960000000	speed of
0.1960000000	discrete time
0.1960000000	reasoning under
0.1960000000	framework not
0.1960000000	significantly less
0.1960000000	outperforms all
0.1960000000	extension to
0.1960000000	framework with
0.1960000000	inspired from
0.1960000000	applicability to
0.1960000000	performance due
0.1960000000	posed by
0.1960000000	two components
0.1960000000	today s
0.1960000000	datasets from
0.1960000000	theoretical computer
0.1960000000	framework to
0.1960000000	distribution instead
0.1960000000	two step
0.1960000000	algorithms such
0.1960000000	entities such
0.1960000000	solvers such
0.1960000000	algorithms do
0.1960000000	processes such
0.1960000000	change over
0.1960000000	applicability of
0.1960000000	factor in
0.1960000000	p np
0.1960000000	3d joint
0.1960000000	rows and
0.1960000000	correlated with
0.1960000000	internet of
0.1960000000	quantities such
0.1960000000	factors such
0.1960000000	fields such
0.1960000000	performing better
0.1960000000	types such
0.1960000000	properties such
0.1960000000	evaluate and
0.1960000000	thought of
0.1960000000	foundation for
0.1960000000	understanding and
0.1960000000	offline and
0.1960000000	weights of
0.1960000000	resources such
0.1960000000	negation as
0.1960000000	policy from
0.1960000000	techniques do
0.1960000000	2d to
0.1960000000	deep q
0.1960000000	characteristics such
0.1960000000	results and
0.1960000000	modelling of
0.1960000000	development and
0.1960000000	control over
0.1960000000	on quantum
0.1960000000	efficient use
0.1960000000	parameters such
0.1960000000	for producing
0.1960000000	techniques such
0.1960000000	for small
0.1960000000	goodness of
0.1960000000	depend only
0.1960000000	generalized to
0.1960000000	processed by
0.1960000000	implement and
0.1960000000	areas such
0.1960000000	sound and
0.1960000000	inter and
0.1960000000	theory for
0.1960000000	wise and
0.1960000000	sizes and
0.1960000000	difficult due
0.1960000000	extracted by
0.1960000000	rate and
0.1960000000	the last
0.1960000000	instances in
0.1960000000	the paths
0.1960000000	the combinatorial
0.1960000000	most recent
0.1960000000	systems such
0.1960000000	important to
0.1960000000	systems due
0.1960000000	inference of
0.1960000000	the salient
0.1960000000	differ in
0.1960000000	the material
0.1960000000	differ from
0.1960000000	role of
0.1960000000	inference on
0.1960000000	setting and
0.1960000000	modalities such
0.1960000000	focus only
0.1960000000	important in
0.1960000000	rate up
0.1960000000	embeddings of
0.1960000000	m m
0.1960000000	unions of
0.1960000000	uncertainty about
0.1960000000	structure for
0.1960000000	intra and
0.1960000000	stationary time
0.1960000000	operations such
0.1960000000	series of
0.1960000000	information such
0.1960000000	cost associated
0.1960000000	constrained by
0.1960000000	context of
0.1960000000	descent with
0.1960000000	linear non
0.1960000000	linear least
0.1960000000	attributes of
0.1960000000	information regarding
0.1960000000	positive or
0.1960000000	explanation of
0.1960000000	developed and
0.1960000000	methods such
0.1960000000	proposed and
0.1960000000	proposed as
0.1960000000	classes such
0.1960000000	simple to
0.1960000000	components such
0.1960000000	pair of
0.1960000000	quantification of
0.1960000000	attention in
0.1960000000	methods with
0.1960000000	proposed so
0.1960000000	standard back
0.1960000000	including computer
0.1960000000	attention due
0.1960000000	attributes such
0.1960000000	notions such
0.1960000000	elements in
0.1960000000	theorem for
0.1960000000	developed so
0.1960000000	popular due
0.1960000000	uncertainty associated
0.1960000000	structure such
0.1960000000	handled by
0.1960000000	soundness and
0.1960000000	generalizations of
0.1960000000	direction of
0.1960000000	structures such
0.1960000000	answers to
0.1960000000	criteria such
0.1960000000	develop and
0.1960000000	matching between
0.1960000000	estimation for
0.1960000000	of obtaining
0.1960000000	complexity due
0.1960000000	recently due
0.1960000000	procedures such
0.1960000000	distributions such
0.1960000000	cues such
0.1960000000	indoor and
0.1960000000	patterns from
0.1960000000	perspective on
0.1960000000	fast r
0.1960000000	of varying
0.1960000000	generated according
0.1960000000	very hard
0.1960000000	communication and
0.1960000000	global and
0.1960000000	of driving
0.1960000000	method not
0.1960000000	paid to
0.1960000000	of sources
0.1960000000	of creating
0.1960000000	benefit of
0.1960000000	of choosing
0.1960000000	history of
0.1960000000	of linguistic
0.1960000000	effective use
0.1960000000	method uses
0.1960000000	propose and
0.1960000000	complementary to
0.1960000000	more natural
0.1960000000	calculation of
0.1960000000	of eeg
0.1960000000	of oil
0.1960000000	co located
0.1960000000	search over
0.1960000000	metrics such
0.1960000000	of low
0.1960000000	improvements on
0.1960000000	method such
0.1960000000	documents such
0.1960000000	search as
0.1960000000	implicit or
0.1960000000	interpretations of
0.1960000000	views of
0.1960000000	embedded into
0.1960000000	convergence and
0.1960000000	absence of
0.1960000000	held in
0.1960000000	graphs with
0.1960000000	vary over
0.1960000000	trial and
0.1960000000	offered by
0.1960000000	outliers and
0.1960000000	appearing in
0.1960000000	valued time
0.1960000000	exploitation in
0.1960000000	aspects such
0.1960000000	data such
0.1960000000	transformations of
0.1960000000	presented by
0.1960000000	functions such
0.1960000000	based only
0.1960000000	concepts such
0.1960000000	black and
0.1960000000	observations such
0.1960000000	functions in
0.1960000000	issues such
0.1960000000	issues in
0.1960000000	takes into
0.1960000000	to clarify
0.1960000000	actions in
0.1960000000	step by
0.1960000000	qualitative and
0.1960000000	observations and
0.1960000000	to recommend
0.1960000000	to merge
0.1960000000	benchmarks such
0.1960000000	an intrinsic
0.1960000000	approaches such
0.1960000000	data does
0.1960000000	an assumption
0.1960000000	behaviors such
0.1960000000	objects such
0.1960000000	application such
0.1960000000	actions such
0.1960000000	an issue
0.1960000000	to inform
0.1960000000	taking into
0.1960000000	lidar and
0.1960000000	to restore
0.1960000000	challenge due
0.1960000000	to expand
0.1960000000	approaches in
0.1960000000	to decode
0.1960000000	while offering
0.1960000000	directly on
0.1960000000	objects with
0.1960000000	takes as
0.1960000000	step in
0.1960000000	input such
0.1960000000	regard to
0.1960000000	data due
0.1960000000	tools such
0.1960000000	modifications to
0.1960000000	inherent in
0.1960000000	availability of
0.1960000000	depends only
0.1960000000	artifacts such
0.1960000000	uniformly at
0.1960000000	success of
0.1960000000	by running
0.1960000000	baselines such
0.1960000000	ensemble of
0.1960000000	making use
0.1960000000	modes of
0.1960000000	measures such
0.1960000000	straightforward to
0.1960000000	computational time
0.1960000000	mechanisms such
0.1960000000	by finding
0.1960000000	location of
0.1960000000	approach towards
0.1960000000	by embedding
0.1960000000	also report
0.1960000000	features associated
0.1960000000	approach clearly
0.1960000000	approach not
0.1960000000	optimal up
0.1960000000	features such
0.1960000000	quality and
0.1960000000	tasks like
0.1960000000	training with
0.1960000000	performs very
0.1960000000	errors due
0.1960000000	approach does
0.1960000000	task due
0.1960000000	experiments in
0.1960000000	sparsity in
0.1960000000	values for
0.1960000000	images into
0.1960000000	images according
0.1960000000	large amount
0.1960000000	values and
0.1960000000	position of
0.1960000000	content and
0.1960000000	beneficial for
0.1960000000	further improvement
0.1960000000	curse of
0.1960000000	risk of
0.1960000000	realized by
0.1960000000	regions and
0.1960000000	arise from
0.1960000000	forward and
0.1960000000	magnitude more
0.1960000000	intrinsic and
0.1960000000	hypotheses about
0.1960000000	classifier for
0.1960000000	and inter
0.1960000000	previously known
0.1960000000	synthetic to
0.1960000000	non i.i.d
0.1960000000	rules such
0.1960000000	challenges for
0.1960000000	strengths and
0.1960000000	and require
0.1960000000	with sparse
0.1960000000	and one
0.1960000000	and occlusion
0.1960000000	entropy and
0.1960000000	and general
0.1960000000	challenges such
0.1960000000	and human
0.1960000000	networks such
0.1960000000	respond to
0.1960000000	pick and
0.1960000000	faces and
0.1960000000	area under
0.1960000000	a decade
0.1960000000	dependence of
0.1960000000	sentences and
0.1960000000	relates to
0.1960000000	activities such
0.1960000000	scenarios such
0.1960000000	encountered in
0.1960000000	variables such
0.1960000000	helps in
0.1960000000	faces from
0.1960000000	works very
0.1960000000	limited due
0.1960000000	limited amount
0.1960000000	issue in
0.1960000000	settings such
0.1960000000	in xml
0.1960000000	problem due
0.1960000000	a holistic
0.1960000000	videos and
0.1960000000	solutions of
0.1960000000	a weight
0.1960000000	solutions such
0.1960000000	period of
0.1960000000	a batch
0.1960000000	a performance
0.1960000000	diagnosis of
0.1960000000	noisy or
0.1960000000	characterizations of
0.1960000000	conditions such
0.1960000000	frameworks such
0.1960000000	length of
0.1960000000	problem associated
0.1960000000	detection system
0.1960000000	lower than
0.1960000000	variations such
0.1960000000	variations due
0.1960000000	spatially and
0.1960000000	seconds per
0.1960000000	separation of
0.1960000000	kernels and
0.1960000000	developments in
0.1950000000	the number of clusters in
0.1950000000	end to end approach for
0.1950000000	the dynamic time warping
0.1950000000	in various computer vision
0.1950000000	multi task learning with
0.1950000000	of latent variable models
0.1950000000	computer vision and graphics
0.1950000000	person re identification by
0.1950000000	and non convex optimization
0.1950000000	a larger class of
0.1950000000	the increase of
0.1950000000	found at https
0.1950000000	the bias variance
0.1950000000	the data collection
0.1950000000	3d action recognition
0.1950000000	used to determine
0.1950000000	proposed based on
0.1950000000	this paper studies
0.1950000000	this paper addresses
0.1950000000	this paper discusses
0.1950000000	as new data
0.1950000000	for material recognition
0.1950000000	to learn feature
0.1950000000	on unseen data
0.1950000000	the reproducibility of
0.1950000000	to improved performance
0.1950000000	time series models
0.1950000000	of semantic similarity
0.1950000000	level of abstraction
0.1950000000	the joint model
0.1950000000	while also providing
0.1950000000	a digital image
0.1950000000	the hierarchical clustering
0.1950000000	a word level
0.1950000000	the test images
0.1950000000	the most informative
0.1950000000	the visual features
0.1950000000	stochastic optimization of
0.1950000000	in hilbert space
0.1950000000	a sparse coding
0.1950000000	in neural network
0.1950000000	the more challenging
0.1950000000	the proposed networks
0.1950000000	the proposed technique
0.1950000000	image space and
0.1950000000	of word vectors
0.1950000000	in model size
0.1950000000	the original space
0.1950000000	the bayesian model
0.1950000000	planning and scheduling
0.1950000000	trained only on
0.1950000000	in image space
0.1950000000	in vector space
0.1950000000	a single image
0.1950000000	speech recognition system
0.1950000000	for gaussian processes
0.1950000000	an unsupervised method
0.1950000000	the art algorithms
0.1950000000	techniques such as
0.1950000000	the model structure
0.1950000000	the unknown parameters
0.1950000000	the art approaches
0.1950000000	for short text
0.1950000000	inferred from
0.1950000000	behavior in
0.1950000000	defined over
0.1950000000	architectures and
0.1950000000	one single
0.1950000000	this methodology
0.1950000000	shared by
0.1950000000	interactions with
0.1950000000	influence on
0.1950000000	model s
0.1950000000	labels for
0.1950000000	improve on
0.1950000000	learned in
0.1950000000	samples of
0.1950000000	trained for
0.1950000000	frames in
0.1950000000	bounded by
0.1950000000	aim to
0.1950000000	powered by
0.1950000000	start with
0.1950000000	searches for
0.1950000000	impact of
0.1950000000	compare two
0.1950000000	hours of
0.1950000000	less attention
0.1950000000	first present
0.1950000000	reasoning in
0.1950000000	place in
0.1950000000	competitive to
0.1950000000	into multiple
0.1950000000	three stages
0.1950000000	datasets for
0.1950000000	prior for
0.1950000000	two ways
0.1950000000	methodology for
0.1950000000	heuristics for
0.1950000000	understood as
0.1950000000	interpolates between
0.1950000000	augmented with
0.1950000000	techniques in
0.1950000000	expressed by
0.1950000000	parameters for
0.1950000000	classifiers and
0.1950000000	each category
0.1950000000	view on
0.1950000000	reflected in
0.1950000000	generalizes to
0.1950000000	parameters in
0.1950000000	cast as
0.1950000000	for implementing
0.1950000000	properties and
0.1950000000	techniques to
0.1950000000	preferences over
0.1950000000	ordering on
0.1950000000	kendall s
0.1950000000	test time
0.1950000000	stages of
0.1950000000	2d joint
0.1950000000	robotics and
0.1950000000	map of
0.1950000000	approximations to
0.1950000000	em for
0.1950000000	c means
0.1950000000	measured in
0.1950000000	growth of
0.1950000000	tuning of
0.1950000000	database and
0.1950000000	comparing to
0.1950000000	sensitivity to
0.1950000000	the summary
0.1950000000	role in
0.1950000000	systems with
0.1950000000	quantity of
0.1950000000	the rapid
0.1950000000	the cases
0.1950000000	database of
0.1950000000	review of
0.1950000000	planning and
0.1950000000	crucial to
0.1950000000	status of
0.1950000000	uncertainty and
0.1950000000	languages and
0.1950000000	researchers to
0.1950000000	management system
0.1950000000	linear in
0.1950000000	lots of
0.1950000000	achieve better
0.1950000000	perception of
0.1950000000	information into
0.1950000000	transferred to
0.1950000000	items to
0.1950000000	earlier work
0.1950000000	stability of
0.1950000000	exist in
0.1950000000	recently several
0.1950000000	existence of
0.1950000000	predicted by
0.1950000000	result of
0.1950000000	built from
0.1950000000	complexity o
0.1950000000	distributions in
0.1950000000	of structures
0.1950000000	evaluation and
0.1950000000	privacy for
0.1950000000	of global
0.1950000000	field as
0.1950000000	of probabilities
0.1950000000	of emph
0.1950000000	of applications
0.1950000000	state value
0.1950000000	representation with
0.1950000000	of higher
0.1950000000	procedures for
0.1950000000	partly because
0.1950000000	method using
0.1950000000	scalable and
0.1950000000	ways of
0.1950000000	of observations
0.1950000000	stability and
0.1950000000	specification of
0.1950000000	reconstruction from
0.1950000000	guidelines for
0.1950000000	acquired from
0.1950000000	to protect
0.1950000000	q values
0.1950000000	comparable with
0.1950000000	dependencies among
0.1950000000	step of
0.1950000000	q value
0.1950000000	acquired by
0.1950000000	to change
0.1950000000	to devise
0.1950000000	to properly
0.1950000000	paradigm for
0.1950000000	to present
0.1950000000	an activity
0.1950000000	an expensive
0.1950000000	to associate
0.1950000000	to diagnose
0.1950000000	to unify
0.1950000000	to noise
0.1950000000	tailored for
0.1950000000	participated in
0.1950000000	arising in
0.1950000000	responses to
0.1950000000	location and
0.1950000000	identification and
0.1950000000	requires only
0.1950000000	applied for
0.1950000000	deployed in
0.1950000000	errors and
0.1950000000	key to
0.1950000000	trends in
0.1950000000	scores of
0.1950000000	by assigning
0.1950000000	experiments indicate
0.1950000000	adept at
0.1950000000	by simulating
0.1950000000	by extracting
0.1950000000	by analyzing
0.1950000000	dataset show
0.1950000000	tasks with
0.1950000000	studies on
0.1950000000	last section
0.1950000000	similarity in
0.1950000000	questions about
0.1950000000	at low
0.1950000000	experiments using
0.1950000000	measurements of
0.1950000000	measures and
0.1950000000	maximization of
0.1950000000	emphasis on
0.1950000000	intended to
0.1950000000	moore s
0.1950000000	next generation
0.1950000000	obtained for
0.1950000000	opportunities for
0.1950000000	obtained in
0.1950000000	unlike most
0.1950000000	identified by
0.1950000000	achieved with
0.1950000000	correspondence between
0.1950000000	with probability
0.1950000000	illustrated in
0.1950000000	and aspect
0.1950000000	solved in
0.1950000000	and investigate
0.1950000000	appearance and
0.1950000000	and related
0.1950000000	and learns
0.1950000000	connections to
0.1950000000	and evaluation
0.1950000000	parameterized by
0.1950000000	solved using
0.1950000000	derivation of
0.1950000000	ongoing work
0.1950000000	reduced by
0.1950000000	deterministic and
0.1950000000	conditions and
0.1950000000	conditions on
0.1950000000	times and
0.1950000000	distributed across
0.1950000000	fail to
0.1950000000	works well
0.1950000000	in developing
0.1950000000	ubiquitous in
0.1950000000	problem into
0.1950000000	a stronger
0.1950000000	discussed in
0.1950000000	noisy and
0.1950000000	a regular
0.1950000000	a functional
0.1950000000	a byproduct
0.1950000000	function for
0.1950000000	breakthroughs in
0.1950000000	a canonical
0.1950000000	maps of
0.1950000000	without retraining
0.1950000000	ten years
0.1950000000	a score
0.1950000000	function in
0.1950000000	detection using
0.1940000000	in statistical learning theory
0.1940000000	fully connected layers of
0.1940000000	of decision trees
0.1940000000	the same subspace
0.1940000000	used to derive
0.1940000000	used to create
0.1940000000	a source sentence
0.1940000000	used to compare
0.1940000000	used to guide
0.1940000000	able to handle
0.1940000000	able to produce
0.1940000000	the information in
0.1940000000	do not necessarily
0.1940000000	of news articles
0.1940000000	in causal inference
0.1940000000	in many practical
0.1940000000	the previous frame
0.1940000000	a basis of
0.1940000000	in convolutional networks
0.1940000000	in zero shot
0.1940000000	on visual data
0.1940000000	compared to other
0.1940000000	of random variables
0.1940000000	for fine grained
0.1940000000	of ensemble learning
0.1940000000	the most efficient
0.1940000000	the test error
0.1940000000	two different types
0.1940000000	challenging due to
0.1940000000	the higher order
0.1940000000	the relevant information
0.1940000000	a graph laplacian
0.1940000000	the semantic segmentation
0.1940000000	the proposed clustering
0.1940000000	problems such as
0.1940000000	of high performance
0.1940000000	a more general
0.1940000000	methods such as
0.1940000000	in multi class
0.1940000000	in image retrieval
0.1940000000	a single low
0.1940000000	and genetic algorithm
0.1940000000	different deep learning
0.1940000000	an object detection
0.1940000000	of low dimensional
0.1940000000	of medical images
0.1940000000	to end training
0.1940000000	the art on
0.1940000000	representations and
0.1940000000	layer of
0.1940000000	goal of
0.1940000000	comparison to
0.1940000000	one important
0.1940000000	limitations of
0.1940000000	comparison with
0.1940000000	integrated with
0.1940000000	architectures for
0.1940000000	this hypothesis
0.1940000000	recognition using
0.1940000000	mechanism for
0.1940000000	both sparse
0.1940000000	models on
0.1940000000	new opportunities
0.1940000000	accuracy in
0.1940000000	layer in
0.1940000000	performed in
0.1940000000	accuracy for
0.1940000000	exploration of
0.1940000000	representations from
0.1940000000	correlation between
0.1940000000	trained by
0.1940000000	this optimal
0.1940000000	applications and
0.1940000000	both models
0.1940000000	models from
0.1940000000	performed using
0.1940000000	this form
0.1940000000	trained in
0.1940000000	stored in
0.1940000000	this low
0.1940000000	sampling from
0.1940000000	evaluated in
0.1940000000	problems of
0.1940000000	new metrics
0.1940000000	user s
0.1940000000	this embedding
0.1940000000	processing of
0.1940000000	evaluated by
0.1940000000	computed from
0.1940000000	corpus of
0.1940000000	principles of
0.1940000000	fraction of
0.1940000000	extensions to
0.1940000000	2012 dataset
0.1940000000	estimated by
0.1940000000	scale up
0.1940000000	probabilities of
0.1940000000	frequently used
0.1940000000	change in
0.1940000000	performance over
0.1940000000	performance with
0.1940000000	evidence for
0.1940000000	overview of
0.1940000000	performance for
0.1940000000	performance than
0.1940000000	estimated from
0.1940000000	act as
0.1940000000	outperforms other
0.1940000000	significantly more
0.1940000000	validated on
0.1940000000	two sources
0.1940000000	two complementary
0.1940000000	as training
0.1940000000	compared against
0.1940000000	policies for
0.1940000000	into smaller
0.1940000000	different measures
0.1940000000	as in
0.1940000000	framework of
0.1940000000	as open
0.1940000000	localization and
0.1940000000	as wikipedia
0.1940000000	case of
0.1940000000	algorithms on
0.1940000000	algorithms with
0.1940000000	variety of
0.1940000000	difference between
0.1940000000	distribution over
0.1940000000	than conventional
0.1940000000	reasoning with
0.1940000000	execution time
0.1940000000	computation and
0.1940000000	faster and
0.1940000000	solution of
0.1940000000	3d medical
0.1940000000	results with
0.1940000000	set up
0.1940000000	serious games
0.1940000000	considered in
0.1940000000	event or
0.1940000000	descriptions of
0.1940000000	from low
0.1940000000	dynamics of
0.1940000000	assumptions on
0.1940000000	threshold value
0.1940000000	build on
0.1940000000	for estimation
0.1940000000	second contribution
0.1940000000	expected to
0.1940000000	correlations between
0.1940000000	building on
0.1940000000	report on
0.1940000000	effectiveness of
0.1940000000	hard to
0.1940000000	many algorithms
0.1940000000	reduction of
0.1940000000	results than
0.1940000000	for gesture
0.1940000000	for nearest
0.1940000000	for jointly
0.1940000000	equally well
0.1940000000	many studies
0.1940000000	on supervised
0.1940000000	on chip
0.1940000000	for approximate
0.1940000000	efficient and
0.1940000000	for bayesian
0.1940000000	from natural
0.1940000000	for artificial
0.1940000000	for empirical
0.1940000000	modeling and
0.1940000000	support for
0.1940000000	usage of
0.1940000000	list of
0.1940000000	implications for
0.1940000000	operate on
0.1940000000	areas of
0.1940000000	collections of
0.1940000000	approximations of
0.1940000000	robustness of
0.1940000000	central to
0.1940000000	mixture of
0.1940000000	builds on
0.1940000000	clusters of
0.1940000000	capabilities of
0.1940000000	advantage over
0.1940000000	efficiency and
0.1940000000	existing work
0.1940000000	the similar
0.1940000000	systems for
0.1940000000	some real
0.1940000000	the discrimination
0.1940000000	inference for
0.1940000000	required by
0.1940000000	the segmented
0.1940000000	the defender
0.1940000000	the planner
0.1940000000	introduction to
0.1940000000	platform for
0.1940000000	investigation of
0.1940000000	the window
0.1940000000	required to
0.1940000000	the wide
0.1940000000	the increased
0.1940000000	difficult for
0.1940000000	the only
0.1940000000	not perform
0.1940000000	the resources
0.1940000000	visualization of
0.1940000000	the vanishing
0.1940000000	the national
0.1940000000	annotated with
0.1940000000	improved by
0.1940000000	the manual
0.1940000000	the microsoft
0.1940000000	the quantity
0.1940000000	the simultaneous
0.1940000000	the technical
0.1940000000	the unit
0.1940000000	the extensive
0.1940000000	the conversion
0.1940000000	inference and
0.1940000000	robustness and
0.1940000000	process and
0.1940000000	dictionary and
0.1940000000	discovery of
0.1940000000	benefits of
0.1940000000	benefits from
0.1940000000	reported in
0.1940000000	attempt to
0.1940000000	score of
0.1940000000	patients with
0.1940000000	interacting with
0.1940000000	operates on
0.1940000000	information on
0.1940000000	feature of
0.1940000000	states and
0.1940000000	needed to
0.1940000000	states of
0.1940000000	simple and
0.1940000000	sampled from
0.1940000000	known results
0.1940000000	extraction and
0.1940000000	information for
0.1940000000	semantics of
0.1940000000	minimization of
0.1940000000	using ensembles
0.1940000000	over pairs
0.1940000000	geometry of
0.1940000000	attention to
0.1940000000	account of
0.1940000000	contrast to
0.1940000000	characteristic of
0.1940000000	memory and
0.1940000000	resistant to
0.1940000000	using supervised
0.1940000000	developed in
0.1940000000	developed by
0.1940000000	interaction with
0.1940000000	sets and
0.1940000000	using particle
0.1940000000	extraction from
0.1940000000	system relies
0.1940000000	procedure for
0.1940000000	controlled by
0.1940000000	interaction between
0.1940000000	statistics of
0.1940000000	all types
0.1940000000	families of
0.1940000000	sum of
0.1940000000	advantages over
0.1940000000	structures in
0.1940000000	variation of
0.1940000000	recently there
0.1940000000	of increasing
0.1940000000	structures of
0.1940000000	of automatic
0.1940000000	details of
0.1940000000	of subjects
0.1940000000	complexity and
0.1940000000	variation in
0.1940000000	empirically show
0.1940000000	connected to
0.1940000000	distributions over
0.1940000000	structures and
0.1940000000	encoded in
0.1940000000	effective in
0.1940000000	effective for
0.1940000000	more meaningful
0.1940000000	created by
0.1940000000	effect of
0.1940000000	architecture and
0.1940000000	only image
0.1940000000	estimation in
0.1940000000	more advanced
0.1940000000	learn from
0.1940000000	of examples
0.1940000000	conclude with
0.1940000000	of sat
0.1940000000	effects of
0.1940000000	of future
0.1940000000	appears to
0.1940000000	effect on
0.1940000000	of sparsity
0.1940000000	of potential
0.1940000000	human like
0.1940000000	method in
0.1940000000	studied in
0.1940000000	distances between
0.1940000000	bound on
0.1940000000	bound for
0.1940000000	ensembles of
0.1940000000	dedicated to
0.1940000000	presented here
0.1940000000	robust against
0.1940000000	presented for
0.1940000000	to impose
0.1940000000	an ongoing
0.1940000000	specific to
0.1940000000	observations of
0.1940000000	thus providing
0.1940000000	often fail
0.1940000000	actions and
0.1940000000	included in
0.1940000000	data using
0.1940000000	to advance
0.1940000000	data into
0.1940000000	concepts and
0.1940000000	robust and
0.1940000000	response to
0.1940000000	an encoding
0.1940000000	to connect
0.1940000000	to disambiguate
0.1940000000	to parse
0.1940000000	to decrease
0.1940000000	to categorize
0.1940000000	consistency of
0.1940000000	tailored to
0.1940000000	these metrics
0.1940000000	an r
0.1940000000	adaptation of
0.1940000000	to combat
0.1940000000	to filter
0.1940000000	objects from
0.1940000000	to suppress
0.1940000000	application in
0.1940000000	to output
0.1940000000	to plan
0.1940000000	to partition
0.1940000000	approaches and
0.1940000000	to fool
0.1940000000	generation and
0.1940000000	while deep
0.1940000000	differences in
0.1940000000	treatment of
0.1940000000	input to
0.1940000000	unable to
0.1940000000	functions and
0.1940000000	lie in
0.1940000000	explained by
0.1940000000	attributed to
0.1940000000	constructed by
0.1940000000	capacity of
0.1940000000	demonstrated on
0.1940000000	contributes to
0.1940000000	success in
0.1940000000	further improvements
0.1940000000	time intervals
0.1940000000	time horizon
0.1940000000	rates of
0.1940000000	by researchers
0.1940000000	demonstrated by
0.1940000000	various ways
0.1940000000	by conducting
0.1940000000	by calculating
0.1940000000	employed in
0.1940000000	good candidate
0.1940000000	experiment with
0.1940000000	relations among
0.1940000000	guarantees for
0.1940000000	approach with
0.1940000000	faced with
0.1940000000	also explore
0.1940000000	task of
0.1940000000	dataset for
0.1940000000	images using
0.1940000000	task in
0.1940000000	fusion of
0.1940000000	dynamical system
0.1940000000	time scales
0.1940000000	sparsity and
0.1940000000	approach in
0.1940000000	contribution of
0.1940000000	t distributed
0.1940000000	approach using
0.1940000000	mapped to
0.1940000000	selection and
0.1940000000	selection for
0.1940000000	fed to
0.1940000000	addressed by
0.1940000000	equal to
0.1940000000	portions of
0.1940000000	with adaptive
0.1940000000	and statistically
0.1940000000	relation between
0.1940000000	implemented as
0.1940000000	obtained with
0.1940000000	implemented on
0.1940000000	rules for
0.1940000000	critical for
0.1940000000	regions in
0.1940000000	gap between
0.1940000000	unlike other
0.1940000000	and comparison
0.1940000000	and proposes
0.1940000000	and stability
0.1940000000	and evaluated
0.1940000000	with human
0.1940000000	and classes
0.1940000000	with fewer
0.1940000000	and applied
0.1940000000	with multi
0.1940000000	and evaluating
0.1940000000	with contextual
0.1940000000	with fixed
0.1940000000	during testing
0.1940000000	common cause
0.1940000000	classification with
0.1940000000	and visualize
0.1940000000	and requires
0.1940000000	with experiments
0.1940000000	and metric
0.1940000000	classification using
0.1940000000	and implement
0.1940000000	and simulated
0.1940000000	and integration
0.1940000000	and unlabeled
0.1940000000	and generates
0.1940000000	implemented by
0.1940000000	analyses of
0.1940000000	and problem
0.1940000000	with long
0.1940000000	and efficiently
0.1940000000	implemented using
0.1940000000	allowed to
0.1940000000	illustrated by
0.1940000000	analysis for
0.1940000000	conditions under
0.1940000000	numbers of
0.1940000000	adapt to
0.1940000000	a service
0.1940000000	a situation
0.1940000000	contained in
0.1940000000	conditions for
0.1940000000	works on
0.1940000000	works in
0.1940000000	reduced to
0.1940000000	analysis to
0.1940000000	a curve
0.1940000000	in cases
0.1940000000	similarities between
0.1940000000	a meaningful
0.1940000000	definitions of
0.1940000000	linked to
0.1940000000	loss of
0.1940000000	in digital
0.1940000000	a penalty
0.1940000000	occur in
0.1940000000	acts as
0.1940000000	solutions for
0.1940000000	in unconstrained
0.1940000000	a field
0.1940000000	design and
0.1940000000	in absence
0.1940000000	in prior
0.1940000000	a multilingual
0.1940000000	a regularizer
0.1940000000	correspondences between
0.1940000000	in environments
0.1940000000	a paradigm
0.1940000000	analysis on
0.1940000000	approximated by
0.1940000000	in mobile
0.1940000000	transformed into
0.1940000000	concentrate on
0.1940000000	fuzzy k
0.1930000000	necessary and sufficient condition for
0.1930000000	in order to facilitate
0.1930000000	learning based approach to
0.1930000000	to deep neural networks
0.1930000000	deep neural networks on
0.1930000000	to semi supervised learning
0.1930000000	data as well as
0.1930000000	neural machine translation with
0.1930000000	the data sets
0.1930000000	used to classify
0.1930000000	the span of
0.1930000000	and time consuming
0.1930000000	the class distribution
0.1930000000	the class specific
0.1930000000	cnn architectures for
0.1930000000	the main challenge
0.1930000000	the training algorithm
0.1930000000	proposed algorithm with
0.1930000000	the training distribution
0.1930000000	of image data
0.1930000000	the complexities of
0.1930000000	problem of minimizing
0.1930000000	the word frequency
0.1930000000	the first two
0.1930000000	of document images
0.1930000000	to higher order
0.1930000000	theory of evidence
0.1930000000	of semantic segmentation
0.1930000000	with big data
0.1930000000	on point clouds
0.1930000000	a new neural
0.1930000000	on two challenging
0.1930000000	on two public
0.1930000000	these two types
0.1930000000	the novel task
0.1930000000	of logic programming
0.1930000000	and semantic features
0.1930000000	the latent variable
0.1930000000	in sentiment analysis
0.1930000000	empirical evaluations on
0.1930000000	based on visual
0.1930000000	the local structure
0.1930000000	the empirical distribution
0.1930000000	the proposed metric
0.1930000000	3d face alignment
0.1930000000	image processing and
0.1930000000	the matrix factorization
0.1930000000	the network training
0.1930000000	a data stream
0.1930000000	tasks such as
0.1930000000	o 1 sqrt
0.1930000000	applications such as
0.1930000000	speech recognition with
0.1930000000	the video data
0.1930000000	deep networks to
0.1930000000	of cross language
0.1930000000	the model parameter
0.1930000000	successfully applied in
0.1930000000	representations of
0.1930000000	knowledge to
0.1930000000	algorithm with
0.1930000000	comparison of
0.1930000000	algorithm on
0.1930000000	behavior of
0.1930000000	relatively simple
0.1930000000	integrated into
0.1930000000	defined on
0.1930000000	lies in
0.1930000000	applications of
0.1930000000	applications in
0.1930000000	applications to
0.1930000000	used extensively
0.1930000000	representations for
0.1930000000	learned by
0.1930000000	present two
0.1930000000	depth in
0.1930000000	accuracy and
0.1930000000	this proposed
0.1930000000	problems in
0.1930000000	both visual
0.1930000000	trained with
0.1930000000	resulting from
0.1930000000	evaluated using
0.1930000000	both visually
0.1930000000	accuracy on
0.1930000000	present in
0.1930000000	models with
0.1930000000	size and
0.1930000000	samples from
0.1930000000	problems with
0.1930000000	trained using
0.1930000000	performed by
0.1930000000	sub pixel
0.1930000000	aim at
0.1930000000	then compared
0.1930000000	knowledge from
0.1930000000	knowledge of
0.1930000000	recognition system
0.1930000000	size of
0.1930000000	learned from
0.1930000000	performed on
0.1930000000	defined as
0.1930000000	computed by
0.1930000000	variant of
0.1930000000	constraints on
0.1930000000	extensions of
0.1930000000	illumination and
0.1930000000	dependent on
0.1930000000	classified by
0.1930000000	registration in
0.1930000000	datasets show
0.1930000000	points in
0.1930000000	bounds on
0.1930000000	widespread use
0.1930000000	observed in
0.1930000000	prior to
0.1930000000	impact on
0.1930000000	invariant to
0.1930000000	definition of
0.1930000000	three approaches
0.1930000000	ranking as
0.1930000000	ontology for
0.1930000000	bounds for
0.1930000000	algorithms in
0.1930000000	layers of
0.1930000000	performance and
0.1930000000	performance by
0.1930000000	datasets with
0.1930000000	performance in
0.1930000000	solution to
0.1930000000	competitive with
0.1930000000	reasoning over
0.1930000000	different numbers
0.1930000000	auc and
0.1930000000	network for
0.1930000000	different configurations
0.1930000000	datasets and
0.1930000000	background from
0.1930000000	3d poses
0.1930000000	distribution of
0.1930000000	as simple
0.1930000000	computation time
0.1930000000	compare several
0.1930000000	solution for
0.1930000000	ability of
0.1930000000	extended to
0.1930000000	computation of
0.1930000000	point out
0.1930000000	compatible with
0.1930000000	chosen by
0.1930000000	analogous to
0.1930000000	reliability of
0.1930000000	effectiveness in
0.1930000000	essential for
0.1930000000	assumptions about
0.1930000000	techniques for
0.1930000000	out performs
0.1930000000	expressed in
0.1930000000	strongly and
0.1930000000	increase of
0.1930000000	on problems
0.1930000000	conducted on
0.1930000000	improvement of
0.1930000000	increase in
0.1930000000	reduction in
0.1930000000	research in
0.1930000000	parameters of
0.1930000000	results for
0.1930000000	many natural
0.1930000000	aims to
0.1930000000	proved to
0.1930000000	examples of
0.1930000000	collected from
0.1930000000	for parameter
0.1930000000	allowing for
0.1930000000	degree of
0.1930000000	many important
0.1930000000	from text
0.1930000000	above mentioned
0.1930000000	view of
0.1930000000	for distributed
0.1930000000	parameters and
0.1930000000	considered as
0.1930000000	for optical
0.1930000000	research on
0.1930000000	sources and
0.1930000000	characteristics of
0.1930000000	expressed as
0.1930000000	development of
0.1930000000	techniques and
0.1930000000	for higher
0.1930000000	results from
0.1930000000	for reasoning
0.1930000000	for identification
0.1930000000	improvement in
0.1930000000	modeling of
0.1930000000	each hidden
0.1930000000	mcmc with
0.1930000000	written in
0.1930000000	involved in
0.1930000000	recovery of
0.1930000000	cut off
0.1930000000	invariants and
0.1930000000	the advances
0.1930000000	proportional to
0.1930000000	the possibilities
0.1930000000	propagation of
0.1930000000	difficult to
0.1930000000	novelty and
0.1930000000	posterior of
0.1930000000	robustness to
0.1930000000	most real
0.1930000000	rate of
0.1930000000	the illumination
0.1930000000	measured by
0.1930000000	scheme for
0.1930000000	important for
0.1930000000	the characteristic
0.1930000000	required for
0.1930000000	theory and
0.1930000000	not robust
0.1930000000	the starting
0.1930000000	the greatest
0.1930000000	efficiency of
0.1930000000	the explosion
0.1930000000	the regular
0.1930000000	advantage of
0.1930000000	the hamming
0.1930000000	the lengths
0.1930000000	the practice
0.1930000000	some recent
0.1930000000	crucial for
0.1930000000	presence of
0.1930000000	process of
0.1930000000	group to
0.1930000000	technique for
0.1930000000	instances of
0.1930000000	estimates of
0.1930000000	adapted to
0.1930000000	languages of
0.1930000000	levels of
0.1930000000	sensitive to
0.1930000000	forms of
0.1930000000	rule for
0.1930000000	news and
0.1930000000	necessary conditions
0.1930000000	information in
0.1930000000	linear time
0.1930000000	information from
0.1930000000	strategy for
0.1930000000	needed for
0.1930000000	strategies for
0.1930000000	series to
0.1930000000	combinations of
0.1930000000	lack of
0.1930000000	methods in
0.1930000000	structure and
0.1930000000	structure in
0.1930000000	capability of
0.1930000000	uncertainty in
0.1930000000	using bayesian
0.1930000000	proposed by
0.1930000000	elements of
0.1930000000	learning from
0.1930000000	components of
0.1930000000	learning for
0.1930000000	proposed for
0.1930000000	developed for
0.1930000000	optimization of
0.1930000000	proposed in
0.1930000000	aspect of
0.1930000000	extraction of
0.1930000000	consists in
0.1930000000	methods on
0.1930000000	feature and
0.1930000000	small and
0.1930000000	using data
0.1930000000	retrieval by
0.1930000000	subspaces for
0.1930000000	using dynamic
0.1930000000	driven by
0.1930000000	classes of
0.1930000000	restricted to
0.1930000000	search for
0.1930000000	built on
0.1930000000	result in
0.1930000000	patterns in
0.1930000000	form of
0.1930000000	distributions of
0.1930000000	estimation and
0.1930000000	complexity of
0.1930000000	vulnerable to
0.1930000000	patterns of
0.1930000000	designed to
0.1930000000	sentiment on
0.1930000000	relevant to
0.1930000000	advantages of
0.1930000000	designed for
0.1930000000	ideas from
0.1930000000	estimate of
0.1930000000	propose two
0.1930000000	architecture for
0.1930000000	improvements in
0.1930000000	means of
0.1930000000	representation for
0.1930000000	method on
0.1930000000	achieves good
0.1930000000	of active
0.1930000000	representation and
0.1930000000	generated from
0.1930000000	added to
0.1930000000	level of
0.1930000000	study of
0.1930000000	guaranteed to
0.1930000000	method with
0.1930000000	embedded in
0.1930000000	convergence of
0.1930000000	4 3
0.1930000000	reconstruction of
0.1930000000	calibration of
0.1930000000	presented in
0.1930000000	words in
0.1930000000	applies to
0.1930000000	these factors
0.1930000000	these improvements
0.1930000000	proven to
0.1930000000	distance between
0.1930000000	measure of
0.1930000000	assigned to
0.1930000000	application to
0.1930000000	approaches for
0.1930000000	an indicator
0.1930000000	to stop
0.1930000000	to sample
0.1930000000	family of
0.1930000000	to engage
0.1930000000	to hundreds
0.1930000000	to optimise
0.1930000000	to problems
0.1930000000	an approximately
0.1930000000	an equivalence
0.1930000000	approaches to
0.1930000000	an abundance
0.1930000000	generation of
0.1930000000	class of
0.1930000000	noise and
0.1930000000	directly to
0.1930000000	an abstraction
0.1930000000	to correctly
0.1930000000	re training
0.1930000000	topology of
0.1930000000	robust to
0.1930000000	directly from
0.1930000000	these parameters
0.1930000000	these classifiers
0.1930000000	these relationships
0.1930000000	alternative to
0.1930000000	possible applications
0.1930000000	distinguishing between
0.1930000000	tools for
0.1930000000	tasks in
0.1930000000	similarity by
0.1930000000	dataset with
0.1930000000	constructed from
0.1930000000	consistent with
0.1930000000	applied on
0.1930000000	training time
0.1930000000	multi way
0.1930000000	selection of
0.1930000000	identification of
0.1930000000	type of
0.1930000000	description of
0.1930000000	time variant
0.1930000000	independent of
0.1930000000	component of
0.1930000000	tensors and
0.1930000000	also proposed
0.1930000000	approximation of
0.1930000000	suggested by
0.1930000000	training of
0.1930000000	also shows
0.1930000000	groups of
0.1930000000	approximation to
0.1930000000	range of
0.1930000000	tasks and
0.1930000000	features from
0.1930000000	by searching
0.1930000000	tool for
0.1930000000	by fusing
0.1930000000	applied in
0.1930000000	formulation of
0.1930000000	represented in
0.1930000000	space from
0.1930000000	integration of
0.1930000000	searching for
0.1930000000	also suggest
0.1930000000	various neural
0.1930000000	experiments with
0.1930000000	power of
0.1930000000	similarity between
0.1930000000	approach on
0.1930000000	values of
0.1930000000	introduced in
0.1930000000	introduced to
0.1930000000	introduced by
0.1930000000	various forms
0.1930000000	features for
0.1930000000	concept of
0.1930000000	choice of
0.1930000000	assessment of
0.1930000000	construction of
0.1930000000	navigation and
0.1930000000	errors in
0.1930000000	measures of
0.1930000000	belief and
0.1930000000	and reliability
0.1930000000	relative to
0.1930000000	regions of
0.1930000000	arise in
0.1930000000	predictions for
0.1930000000	obtained using
0.1930000000	evolution of
0.1930000000	guided by
0.1930000000	formed by
0.1930000000	and deployment
0.1930000000	implemented in
0.1930000000	interpretation of
0.1930000000	and obesity
0.1930000000	and expectation
0.1930000000	and focus
0.1930000000	and genetic
0.1930000000	and active
0.1930000000	and limitations
0.1930000000	and tend
0.1930000000	progress in
0.1930000000	with total
0.1930000000	with theoretical
0.1930000000	and dynamics
0.1930000000	and mutual
0.1930000000	with reference
0.1930000000	and lead
0.1930000000	with fully
0.1930000000	with natural
0.1930000000	with convolutional
0.1930000000	with humans
0.1930000000	classification and
0.1930000000	with numerical
0.1930000000	and batch
0.1930000000	and missing
0.1930000000	object from
0.1930000000	challenges in
0.1930000000	solved with
0.1930000000	pairs of
0.1930000000	advances in
0.1930000000	reductions in
0.1930000000	and information
0.1930000000	predictions from
0.1930000000	implementations of
0.1930000000	coupled with
0.1930000000	symmetry of
0.1930000000	inequality to
0.1930000000	decomposition of
0.1930000000	or machine
0.1930000000	collection of
0.1930000000	30 000
0.1930000000	expressions and
0.1930000000	modeled by
0.1930000000	corpora of
0.1930000000	property of
0.1930000000	without degrading
0.1930000000	works with
0.1930000000	in fully
0.1930000000	imaging system
0.1930000000	in structured
0.1930000000	in static
0.1930000000	problem as
0.1930000000	under resourced
0.1930000000	assumed to
0.1930000000	limited to
0.1930000000	solutions to
0.1930000000	kernels to
0.1930000000	teacher and
0.1930000000	design of
0.1930000000	a daunting
0.1930000000	a convnet
0.1930000000	a complementary
0.1930000000	a guideline
0.1930000000	a clean
0.1930000000	a parameterized
0.1930000000	a communication
0.1930000000	dependence on
0.1930000000	a classic
0.1930000000	planner to
0.1930000000	function of
0.1930000000	in supervised
0.1930000000	variations of
0.1930000000	in causal
0.1930000000	analysis and
0.1930000000	a vocabulary
0.1930000000	function as
0.1930000000	problem with
0.1930000000	problem for
0.1930000000	problem in
0.1930000000	sequences of
0.1930000000	document to
0.1930000000	limited by
0.1930000000	generalization of
0.1930000000	variations in
0.1930000000	ontologies to
0.1920000000	deep convolutional neural networks and
0.1920000000	the probability distribution of
0.1920000000	in spiking neural networks
0.1920000000	a novel framework called
0.1920000000	a new dataset of
0.1920000000	the proximity operator of
0.1920000000	the most relevant features
0.1920000000	data in order to
0.1920000000	a new model called
0.1920000000	the feature maps
0.1920000000	the same type
0.1920000000	the second type
0.1920000000	used to obtain
0.1920000000	dataset of over
0.1920000000	application of fuzzy
0.1920000000	able to solve
0.1920000000	expert system for
0.1920000000	a certain class
0.1920000000	a novel class
0.1920000000	between two sets
0.1920000000	the 3d model
0.1920000000	subset of variables
0.1920000000	a new measure
0.1920000000	a new data
0.1920000000	a new benchmark
0.1920000000	a particular type
0.1920000000	a two phase
0.1920000000	set of labeled
0.1920000000	an internal representation
0.1920000000	word embeddings for
0.1920000000	for different types
0.1920000000	model in order
0.1920000000	a speedup of
0.1920000000	a benchmark dataset
0.1920000000	a real valued
0.1920000000	of different types
0.1920000000	and text classification
0.1920000000	empirical evaluation of
0.1920000000	for contextual bandits
0.1920000000	ensemble of classifiers
0.1920000000	non zero entries
0.1920000000	on standard datasets
0.1920000000	in image restoration
0.1920000000	the sensitivity to
0.1920000000	the entire image
0.1920000000	used in natural
0.1920000000	algorithm for
0.1920000000	tested for
0.1920000000	both worlds
0.1920000000	used successfully
0.1920000000	dnns on
0.1920000000	both quantitatively
0.1920000000	both global
0.1920000000	one million
0.1920000000	new class
0.1920000000	both image
0.1920000000	this lack
0.1920000000	models for
0.1920000000	both local
0.1920000000	both qualitative
0.1920000000	model for
0.1920000000	show results
0.1920000000	spaces as
0.1920000000	new theory
0.1920000000	then develop
0.1920000000	both efficient
0.1920000000	both quantitative
0.1920000000	future time
0.1920000000	arm with
0.1920000000	overall performance
0.1920000000	different type
0.1920000000	overfitting and
0.1920000000	different deep
0.1920000000	performance of
0.1920000000	performance on
0.1920000000	framework for
0.1920000000	first results
0.1920000000	than alternative
0.1920000000	different combinations
0.1920000000	different areas
0.1920000000	two groups
0.1920000000	different characteristics
0.1920000000	different viewpoints
0.1920000000	different locations
0.1920000000	three real
0.1920000000	as building
0.1920000000	framework does
0.1920000000	different set
0.1920000000	algorithms for
0.1920000000	several classes
0.1920000000	into low
0.1920000000	two forms
0.1920000000	as latent
0.1920000000	as efficiently
0.1920000000	curve to
0.1920000000	person to
0.1920000000	policies of
0.1920000000	rooted in
0.1920000000	from face
0.1920000000	condition on
0.1920000000	second level
0.1920000000	revision and
0.1920000000	gradient and
0.1920000000	understanding of
0.1920000000	from satellite
0.1920000000	results in
0.1920000000	for diagnosis
0.1920000000	number in
0.1920000000	results on
0.1920000000	many kinds
0.1920000000	on labeled
0.1920000000	on classification
0.1920000000	for enhancing
0.1920000000	for dependency
0.1920000000	many scientific
0.1920000000	on natural
0.1920000000	for nonconvex
0.1920000000	for sets
0.1920000000	degree to
0.1920000000	on analysis
0.1920000000	for activity
0.1920000000	on support
0.1920000000	for research
0.1920000000	on public
0.1920000000	for detection
0.1920000000	for outlier
0.1920000000	on demand
0.1920000000	for cost
0.1920000000	for pre
0.1920000000	for compressive
0.1920000000	for graphical
0.1920000000	for global
0.1920000000	for analysis
0.1920000000	for datasets
0.1920000000	acoustic to
0.1920000000	for collaborative
0.1920000000	test and
0.1920000000	calculus and
0.1920000000	confined to
0.1920000000	the trace
0.1920000000	posterior to
0.1920000000	damage in
0.1920000000	reviews in
0.1920000000	the semeval
0.1920000000	not scale
0.1920000000	the extensions
0.1920000000	the 1st
0.1920000000	the pursuit
0.1920000000	the concentration
0.1920000000	the conjunction
0.1920000000	the phenomena
0.1920000000	not guaranteed
0.1920000000	the corpora
0.1920000000	the promising
0.1920000000	the reported
0.1920000000	modalities of
0.1920000000	the globally
0.1920000000	most prior
0.1920000000	modalities to
0.1920000000	group in
0.1920000000	the ultimate
0.1920000000	the dynamical
0.1920000000	the redundancy
0.1920000000	l1 and
0.1920000000	online and
0.1920000000	the intention
0.1920000000	the laplace
0.1920000000	online to
0.1920000000	some numerical
0.1920000000	using naive
0.1920000000	methods for
0.1920000000	structure of
0.1920000000	all data
0.1920000000	programming with
0.1920000000	learning new
0.1920000000	using high
0.1920000000	hidden and
0.1920000000	attack and
0.1920000000	system trained
0.1920000000	through deep
0.1920000000	diagrams with
0.1920000000	illustrative example
0.1920000000	indistinguishable from
0.1920000000	clustering to
0.1920000000	spearman s
0.1920000000	useful tool
0.1920000000	formulated in
0.1920000000	of detecting
0.1920000000	of generalized
0.1920000000	estimation of
0.1920000000	more scalable
0.1920000000	clustering by
0.1920000000	only capable
0.1920000000	denoted by
0.1920000000	of big
0.1920000000	of single
0.1920000000	of topological
0.1920000000	only unlabeled
0.1920000000	of fundamental
0.1920000000	of tens
0.1920000000	of computed
0.1920000000	full precision
0.1920000000	develop new
0.1920000000	method for
0.1920000000	shot and
0.1920000000	fair amount
0.1920000000	automata in
0.1920000000	allow users
0.1920000000	intensity and
0.1920000000	any set
0.1920000000	ram and
0.1920000000	often difficult
0.1920000000	data from
0.1920000000	to lead
0.1920000000	an inventory
0.1920000000	application of
0.1920000000	to high
0.1920000000	to local
0.1920000000	to escape
0.1920000000	an indication
0.1920000000	to binary
0.1920000000	to semi
0.1920000000	an entropy
0.1920000000	to attend
0.1920000000	to significantly
0.1920000000	to complement
0.1920000000	noise of
0.1920000000	to succeed
0.1920000000	while avoiding
0.1920000000	house and
0.1920000000	configuration of
0.1920000000	realizations of
0.1920000000	identification in
0.1920000000	drift and
0.1920000000	by human
0.1920000000	by transforming
0.1920000000	graph in
0.1920000000	by humans
0.1920000000	by dynamic
0.1920000000	approach for
0.1920000000	by generalizing
0.1920000000	various levels
0.1920000000	by generative
0.1920000000	time efficiency
0.1920000000	better predictive
0.1920000000	mapped into
0.1920000000	by extensive
0.1920000000	various properties
0.1920000000	various natural
0.1920000000	further extended
0.1920000000	divergence for
0.1920000000	construction and
0.1920000000	cad system
0.1920000000	fitness of
0.1920000000	boosting with
0.1920000000	and maintenance
0.1920000000	predictions about
0.1920000000	and quantification
0.1920000000	directions of
0.1920000000	and rule
0.1920000000	and diagnosis
0.1920000000	and consistency
0.1920000000	and degree
0.1920000000	and run
0.1920000000	and uncertainty
0.1920000000	and subspace
0.1920000000	and gated
0.1920000000	and pixel
0.1920000000	and significantly
0.1920000000	and generation
0.1920000000	with extensive
0.1920000000	with thousands
0.1920000000	with experimental
0.1920000000	and unsupervised
0.1920000000	with synthetic
0.1920000000	and supervised
0.1920000000	and space
0.1920000000	and variational
0.1920000000	and hand
0.1920000000	and practice
0.1920000000	fisher s
0.1920000000	and density
0.1920000000	and big
0.1920000000	and gender
0.1920000000	and selection
0.1920000000	and geometry
0.1920000000	and short
0.1920000000	and parameter
0.1920000000	and results
0.1920000000	and tools
0.1920000000	and shortcomings
0.1920000000	interest points
0.1920000000	and feasibility
0.1920000000	and fine
0.1920000000	and ease
0.1920000000	and pooling
0.1920000000	with simulated
0.1920000000	logic as
0.1920000000	mri and
0.1920000000	thereby avoiding
0.1920000000	phrase and
0.1920000000	a max
0.1920000000	a continuum
0.1920000000	a sense
0.1920000000	a piece
0.1920000000	in genetic
0.1920000000	a superior
0.1920000000	in urban
0.1920000000	a vision
0.1920000000	in problems
0.1920000000	in favour
0.1920000000	a cross
0.1920000000	in semantic
0.1920000000	in representation
0.1920000000	a cascaded
0.1920000000	a moving
0.1920000000	a conceptually
0.1920000000	or higher
0.1920000000	a manner
0.1920000000	a preference
0.1920000000	a manually
0.1920000000	in magnetic
0.1920000000	in cognitive
0.1920000000	in sponsored
0.1920000000	a pool
0.1920000000	a reproducing
0.1920000000	a gan
0.1920000000	a completely
0.1920000000	in unsupervised
0.1920000000	a specialized
0.1920000000	a covariance
0.1920000000	in constant
0.1920000000	without prior
0.1920000000	a proposal
0.1920000000	in place
0.1920000000	in binary
0.1920000000	centers of
0.1920000000	ucb and
0.1920000000	tedious and
0.1910000000	person re identification with
0.1910000000	in terms of speed
0.1910000000	for multi armed bandits
0.1910000000	model consists of two
0.1910000000	the number of random
0.1910000000	the number of agents
0.1910000000	top down saliency
0.1910000000	of supervised classification
0.1910000000	with variance reduction
0.1910000000	the data mining
0.1910000000	easy to use
0.1910000000	able to adapt
0.1910000000	the training instances
0.1910000000	on various benchmark
0.1910000000	such as image
0.1910000000	such as object
0.1910000000	the first application
0.1910000000	a given user
0.1910000000	a transformation of
0.1910000000	the time required
0.1910000000	the first order
0.1910000000	the response of
0.1910000000	tends to infinity
0.1910000000	the position and
0.1910000000	widely applied to
0.1910000000	the error probability
0.1910000000	number of kernels
0.1910000000	however in order
0.1910000000	order to make
0.1910000000	order statistics of
0.1910000000	the expected reward
0.1910000000	and continuous variables
0.1910000000	a new representation
0.1910000000	the event calculus
0.1910000000	significantly worse than
0.1910000000	the sparse representation
0.1910000000	of point clouds
0.1910000000	with different levels
0.1910000000	and other types
0.1910000000	the learned representations
0.1910000000	the learned dictionary
0.1910000000	the most suitable
0.1910000000	based on object
0.1910000000	of learning algorithms
0.1910000000	of distribution algorithm
0.1910000000	the two types
0.1910000000	the two models
0.1910000000	alternating least squares
0.1910000000	the domain adaptation
0.1910000000	automatic segmentation of
0.1910000000	numerical experiments on
0.1910000000	networks for learning
0.1910000000	algorithms to learn
0.1910000000	the art systems
0.1910000000	usually rely
0.1910000000	both linear
0.1910000000	show superior
0.1910000000	both convex
0.1910000000	new methods
0.1910000000	new approaches
0.1910000000	this intuition
0.1910000000	both real
0.1910000000	this yields
0.1910000000	both appearance
0.1910000000	then extend
0.1910000000	new neural
0.1910000000	corpus for
0.1910000000	this scenario
0.1910000000	evaluated against
0.1910000000	user interest
0.1910000000	extensions in
0.1910000000	device to
0.1910000000	several kinds
0.1910000000	use neural
0.1910000000	s ability
0.1910000000	less sensitive
0.1910000000	much lower
0.1910000000	yet challenging
0.1910000000	first step
0.1910000000	two public
0.1910000000	different forms
0.1910000000	image for
0.1910000000	several large
0.1910000000	3d semantic
0.1910000000	framework using
0.1910000000	different degrees
0.1910000000	different representations
0.1910000000	three orders
0.1910000000	different choices
0.1910000000	different evaluation
0.1910000000	two approaches
0.1910000000	different kind
0.1910000000	as fast
0.1910000000	sequence into
0.1910000000	as inputs
0.1910000000	image at
0.1910000000	plan to
0.1910000000	language on
0.1910000000	cnns to
0.1910000000	several numerical
0.1910000000	difference in
0.1910000000	than competing
0.1910000000	workers to
0.1910000000	solvers for
0.1910000000	factors in
0.1910000000	many potential
0.1910000000	from unlabeled
0.1910000000	for scene
0.1910000000	for posterior
0.1910000000	gradient to
0.1910000000	parameters to
0.1910000000	for skeleton
0.1910000000	for rgb
0.1910000000	however current
0.1910000000	for energy
0.1910000000	many large
0.1910000000	on static
0.1910000000	on learning
0.1910000000	on sentiment
0.1910000000	for lung
0.1910000000	on high
0.1910000000	on pre
0.1910000000	for hand
0.1910000000	domain without
0.1910000000	many deep
0.1910000000	for representation
0.1910000000	for task
0.1910000000	for pattern
0.1910000000	for effective
0.1910000000	for decision
0.1910000000	each neuron
0.1910000000	for remote
0.1910000000	many objective
0.1910000000	hand and
0.1910000000	usefulness of
0.1910000000	elimination of
0.1910000000	the supervision
0.1910000000	the additional
0.1910000000	the provision
0.1910000000	mainly focus
0.1910000000	the music
0.1910000000	inference over
0.1910000000	relevance of
0.1910000000	annotation to
0.1910000000	ner and
0.1910000000	audio and
0.1910000000	the colors
0.1910000000	not hold
0.1910000000	the biggest
0.1910000000	the segment
0.1910000000	the reproducibility
0.1910000000	the chance
0.1910000000	the relaxation
0.1910000000	the hyper
0.1910000000	the vessel
0.1910000000	the assignment
0.1910000000	the compressive
0.1910000000	the coverage
0.1910000000	not captured
0.1910000000	the metropolis
0.1910000000	the steps
0.1910000000	the recombination
0.1910000000	the plausibility
0.1910000000	the pl
0.1910000000	the tendency
0.1910000000	the production
0.1910000000	the health
0.1910000000	most commonly
0.1910000000	the ease
0.1910000000	the significant
0.1910000000	the discussion
0.1910000000	the responses
0.1910000000	the preservation
0.1910000000	the sharing
0.1910000000	most suitable
0.1910000000	the richness
0.1910000000	the feedback
0.1910000000	the convexity
0.1910000000	the tv
0.1910000000	the ubiquity
0.1910000000	inference as
0.1910000000	the subsequent
0.1910000000	the soundness
0.1910000000	the cameras
0.1910000000	the sake
0.1910000000	the limited
0.1910000000	the quest
0.1910000000	the gru
0.1910000000	the employment
0.1910000000	the explicit
0.1910000000	the proper
0.1910000000	the families
0.1910000000	the organization
0.1910000000	some form
0.1910000000	the excess
0.1910000000	the wealth
0.1910000000	using natural
0.1910000000	methods by
0.1910000000	completion for
0.1910000000	annotations of
0.1910000000	seek to
0.1910000000	such algorithms
0.1910000000	proposed here
0.1910000000	developed using
0.1910000000	another advantage
0.1910000000	using social
0.1910000000	information across
0.1910000000	incurred by
0.1910000000	svrg and
0.1910000000	exhibited by
0.1910000000	of nonlinear
0.1910000000	of new
0.1910000000	no polynomial
0.1910000000	of dempster
0.1910000000	of utmost
0.1910000000	perspective of
0.1910000000	against ground
0.1910000000	of phonological
0.1910000000	merging and
0.1910000000	google s
0.1910000000	after training
0.1910000000	of working
0.1910000000	of driver
0.1910000000	no labeled
0.1910000000	of rigid
0.1910000000	given rise
0.1910000000	of positive
0.1910000000	of normalization
0.1910000000	more practical
0.1910000000	of named
0.1910000000	of convergence
0.1910000000	of special
0.1910000000	of identifying
0.1910000000	of structured
0.1910000000	of predictive
0.1910000000	of transportation
0.1910000000	of bio
0.1910000000	of space
0.1910000000	no loss
0.1910000000	i vector
0.1910000000	independence and
0.1910000000	engine and
0.1910000000	concentrates on
0.1910000000	events as
0.1910000000	to fine
0.1910000000	an absolute
0.1910000000	any prior
0.1910000000	brief survey
0.1910000000	these assumptions
0.1910000000	to circumvent
0.1910000000	to react
0.1910000000	light on
0.1910000000	an enhancement
0.1910000000	to ease
0.1910000000	an lstm
0.1910000000	an associative
0.1910000000	to thousands
0.1910000000	to depend
0.1910000000	to dynamically
0.1910000000	while remaining
0.1910000000	to suffer
0.1910000000	an illustrative
0.1910000000	to remedy
0.1910000000	an advantage
0.1910000000	to constrain
0.1910000000	to propagate
0.1910000000	to operate
0.1910000000	data not
0.1910000000	an exponentially
0.1910000000	these concepts
0.1910000000	these kinds
0.1910000000	efforts in
0.1910000000	to dense
0.1910000000	player s
0.1910000000	consistent and
0.1910000000	translation to
0.1910000000	ocr of
0.1910000000	good quality
0.1910000000	between random
0.1910000000	graph to
0.1910000000	also capable
0.1910000000	also results
0.1910000000	by removing
0.1910000000	also enables
0.1910000000	by eliminating
0.1910000000	between humans
0.1910000000	derived for
0.1910000000	various machine
0.1910000000	various combinations
0.1910000000	further experiments
0.1910000000	further extend
0.1910000000	transitions between
0.1910000000	optimality of
0.1910000000	returned by
0.1910000000	beginning of
0.1910000000	gan to
0.1910000000	with millions
0.1910000000	those produced
0.1910000000	non existence
0.1910000000	and virtual
0.1910000000	and compressed
0.1910000000	and identify
0.1910000000	and statistics
0.1910000000	games to
0.1910000000	and subject
0.1910000000	neural system
0.1910000000	and comparisons
0.1910000000	and nearest
0.1910000000	and types
0.1910000000	with networks
0.1910000000	and artificial
0.1910000000	and nuclear
0.1910000000	and invariance
0.1910000000	and lack
0.1910000000	and observe
0.1910000000	and interpretation
0.1910000000	and super
0.1910000000	with pixel
0.1910000000	and optical
0.1910000000	video while
0.1910000000	and ms
0.1910000000	and synthetic
0.1910000000	and spatial
0.1910000000	and svhn
0.1910000000	and pascal
0.1910000000	and long
0.1910000000	and sensitivity
0.1910000000	and simplicity
0.1910000000	scenes for
0.1910000000	a control
0.1910000000	a committee
0.1910000000	a commercial
0.1910000000	four real
0.1910000000	four benchmark
0.1910000000	in sharp
0.1910000000	a drawback
0.1910000000	in term
0.1910000000	a mutual
0.1910000000	a grid
0.1910000000	a np
0.1910000000	a piecewise
0.1910000000	a pilot
0.1910000000	in intensive
0.1910000000	a mix
0.1910000000	a soft
0.1910000000	a euclidean
0.1910000000	a physical
0.1910000000	a validation
0.1910000000	a globally
0.1910000000	in web
0.1910000000	a toolkit
0.1910000000	a layer
0.1910000000	a host
0.1910000000	a construction
0.1910000000	in extensive
0.1910000000	without relying
0.1910000000	a hypothesis
0.1910000000	in spectral
0.1910000000	a gibbs
0.1910000000	a change
0.1910000000	a tight
0.1910000000	a gain
0.1910000000	a refinement
0.1910000000	a statistically
0.1910000000	a choice
0.1910000000	a building
0.1910000000	a convenient
0.1910000000	a stream
0.1910000000	a precision
0.1910000000	a related
0.1910000000	a subject
0.1910000000	a limitation
0.1910000000	in noisy
0.1910000000	in practical
0.1910000000	a notoriously
0.1910000000	a speedup
0.1910000000	generalization and
0.1910000000	expansion of
0.1910000000	markers for
0.1900000000	with synthetic and real
0.1900000000	statistical machine translation system
0.1900000000	the success of deep
0.1900000000	in terms of prediction
0.1900000000	the algorithm s performance
0.1900000000	the ability to handle
0.1900000000	the ability to model
0.1900000000	for sequence to sequence
0.1900000000	field of view of
0.1900000000	the application of deep
0.1900000000	the 0 1 knapsack
0.1900000000	use of machine learning
0.1900000000	for regression and classification
0.1900000000	the same level
0.1900000000	the same accuracy
0.1900000000	3d object detection
0.1900000000	of multiple classifiers
0.1900000000	used to define
0.1900000000	used to identify
0.1900000000	method for estimating
0.1900000000	the connectivity of
0.1900000000	used to construct
0.1900000000	the relations among
0.1900000000	up to date
0.1900000000	the second phase
0.1900000000	amount of labeled
0.1900000000	theoretical foundations of
0.1900000000	used to build
0.1900000000	of body parts
0.1900000000	able to recover
0.1900000000	able to identify
0.1900000000	able to detect
0.1900000000	on three benchmark
0.1900000000	with many applications
0.1900000000	of manifold learning
0.1900000000	a mean field
0.1900000000	various computer vision
0.1900000000	do not scale
0.1900000000	do not perform
0.1900000000	knowledge discovery from
0.1900000000	instead of relying
0.1900000000	such as principal
0.1900000000	1 1 evolutionary
0.1900000000	a novel solution
0.1900000000	in many areas
0.1900000000	a novel network
0.1900000000	a novel cnn
0.1900000000	the first attempt
0.1900000000	super resolution with
0.1900000000	interest in machine
0.1900000000	the different types
0.1900000000	on different types
0.1900000000	and well studied
0.1900000000	a new form
0.1900000000	in different areas
0.1900000000	set of discrete
0.1900000000	a new notion
0.1900000000	in different ways
0.1900000000	a new formulation
0.1900000000	the overall performance
0.1900000000	much more robust
0.1900000000	of ensemble methods
0.1900000000	with only image
0.1900000000	the most challenging
0.1900000000	with different types
0.1900000000	dimensionality reduction and
0.1900000000	the posterior distributions
0.1900000000	the source data
0.1900000000	variety of image
0.1900000000	in low resolution
0.1900000000	based on color
0.1900000000	the recognition process
0.1900000000	the high quality
0.1900000000	for text generation
0.1900000000	does not lead
0.1900000000	a target word
0.1900000000	for video surveillance
0.1900000000	the mean squared
0.1900000000	from various sources
0.1900000000	diagnosis of breast
0.1900000000	a front end
0.1900000000	the flow of
0.1900000000	the action space
0.1900000000	provide conditions under
0.1900000000	this problem by
0.1900000000	extraction and classification
0.1900000000	the adaptation of
0.1900000000	classification and clustering
0.1900000000	and unlabeled data
0.1900000000	the best results
0.1900000000	robustness of classifiers
0.1900000000	out of vocabulary
0.1900000000	limitations in
0.1900000000	then apply
0.1900000000	nearly optimal
0.1900000000	then fine
0.1900000000	one aspect
0.1900000000	show experimentally
0.1900000000	show promising
0.1900000000	this connection
0.1900000000	used machine
0.1900000000	this number
0.1900000000	new lower
0.1900000000	both source
0.1900000000	both spatial
0.1900000000	both algorithms
0.1900000000	both supervised
0.1900000000	both qualitatively
0.1900000000	both input
0.1900000000	other forms
0.1900000000	both accuracy
0.1900000000	other languages
0.1900000000	that end
0.1900000000	one set
0.1900000000	work deals
0.1900000000	other aspects
0.1900000000	both training
0.1900000000	both methods
0.1900000000	this motivates
0.1900000000	this topic
0.1900000000	this situation
0.1900000000	both theoretically
0.1900000000	samples with
0.1900000000	new machine
0.1900000000	five real
0.1900000000	other variants
0.1900000000	both simulated
0.1900000000	new reinforcement
0.1900000000	adaptive to
0.1900000000	suggestions for
0.1900000000	comprises of
0.1900000000	first place
0.1900000000	several experiments
0.1900000000	different instances
0.1900000000	particular attention
0.1900000000	several public
0.1900000000	different sets
0.1900000000	use machine
0.1900000000	different regions
0.1900000000	two versions
0.1900000000	different sources
0.1900000000	first propose
0.1900000000	either based
0.1900000000	different number
0.1900000000	three sets
0.1900000000	several strong
0.1900000000	several aspects
0.1900000000	as accurate
0.1900000000	three public
0.1900000000	than standard
0.1900000000	different real
0.1900000000	different variants
0.1900000000	three variants
0.1900000000	three kinds
0.1900000000	several important
0.1900000000	different body
0.1900000000	different subsets
0.1900000000	different methods
0.1900000000	several types
0.1900000000	2 3
0.1900000000	different stages
0.1900000000	two tasks
0.1900000000	several benchmark
0.1900000000	several examples
0.1900000000	different network
0.1900000000	as prior
0.1900000000	three major
0.1900000000	as applied
0.1900000000	policies and
0.1900000000	as efficient
0.1900000000	several methods
0.1900000000	as sequences
0.1900000000	several popular
0.1900000000	as small
0.1900000000	two methods
0.1900000000	several desirable
0.1900000000	as matrix
0.1900000000	particular type
0.1900000000	several real
0.1900000000	several data
0.1900000000	3d space
0.1900000000	on pascal
0.1900000000	k space
0.1900000000	from machine
0.1900000000	many machine
0.1900000000	each instance
0.1900000000	from high
0.1900000000	for mixtures
0.1900000000	for context
0.1900000000	name entities
0.1900000000	for abstract
0.1900000000	from social
0.1900000000	for phase
0.1900000000	for mixture
0.1900000000	for recovering
0.1900000000	each component
0.1900000000	on unlabeled
0.1900000000	on test
0.1900000000	for approximating
0.1900000000	for big
0.1900000000	many classification
0.1900000000	each case
0.1900000000	on ideas
0.1900000000	for choosing
0.1900000000	on subsets
0.1900000000	from pixels
0.1900000000	on held
0.1900000000	for comparing
0.1900000000	many aspects
0.1900000000	from training
0.1900000000	served as
0.1900000000	for human
0.1900000000	for achieving
0.1900000000	for joint
0.1900000000	for semi
0.1900000000	for understanding
0.1900000000	for dynamic
0.1900000000	for improved
0.1900000000	for addressing
0.1900000000	for structure
0.1900000000	for practical
0.1900000000	from sensor
0.1900000000	from sets
0.1900000000	on big
0.1900000000	same set
0.1900000000	same number
0.1900000000	calculus for
0.1900000000	measured using
0.1900000000	the advance
0.1900000000	the bid
0.1900000000	the shannon
0.1900000000	the regularity
0.1900000000	the dependencies
0.1900000000	assumption on
0.1900000000	the bounding
0.1900000000	the increasing
0.1900000000	the purposes
0.1900000000	the competitiveness
0.1900000000	certain properties
0.1900000000	the investigation
0.1900000000	made significant
0.1900000000	most cases
0.1900000000	the arrival
0.1900000000	the wisdom
0.1900000000	the variety
0.1900000000	the percentage
0.1900000000	sizes of
0.1900000000	the correlations
0.1900000000	the areas
0.1900000000	the decrease
0.1900000000	the origins
0.1900000000	the grouping
0.1900000000	the completeness
0.1900000000	the spread
0.1900000000	the drawbacks
0.1900000000	the proportion
0.1900000000	the guidance
0.1900000000	most popular
0.1900000000	the details
0.1900000000	the kinds
0.1900000000	the deviation
0.1900000000	the foundation
0.1900000000	the syntax
0.1900000000	the status
0.1900000000	some interesting
0.1900000000	the modification
0.1900000000	the start
0.1900000000	the variability
0.1900000000	the management
0.1900000000	the vicinity
0.1900000000	the similarities
0.1900000000	the realization
0.1900000000	the positions
0.1900000000	the programming
0.1900000000	the frobenius
0.1900000000	the atari
0.1900000000	the boundaries
0.1900000000	the union
0.1900000000	the instability
0.1900000000	the consequences
0.1900000000	the progress
0.1900000000	the adjacency
0.1900000000	the operation
0.1900000000	the notions
0.1900000000	the visualization
0.1900000000	the characterization
0.1900000000	the backpropagation
0.1900000000	the lens
0.1900000000	the movement
0.1900000000	the heterogeneity
0.1900000000	the door
0.1900000000	the expressive
0.1900000000	the acquired
0.1900000000	the normalized
0.1900000000	the assessment
0.1900000000	the closest
0.1900000000	the complexities
0.1900000000	the predictability
0.1900000000	the precise
0.1900000000	some types
0.1900000000	some kind
0.1900000000	some applications
0.1900000000	some measure
0.1900000000	the ambient
0.1900000000	the fraction
0.1900000000	the foundations
0.1900000000	the choices
0.1900000000	the learnability
0.1900000000	patients and
0.1900000000	neurons by
0.1900000000	using gaussian
0.1900000000	another type
0.1900000000	all existing
0.1900000000	sets for
0.1900000000	attack against
0.1900000000	using fully
0.1900000000	such representations
0.1900000000	make sense
0.1900000000	using pairs
0.1900000000	using mutual
0.1900000000	using multiple
0.1900000000	using word
0.1900000000	system achieves
0.1900000000	through experiments
0.1900000000	databases and
0.1900000000	of remote
0.1900000000	more interpretable
0.1900000000	more compact
0.1900000000	no additional
0.1900000000	of accuracy
0.1900000000	of development
0.1900000000	more recently
0.1900000000	of ann
0.1900000000	of indoor
0.1900000000	of using
0.1900000000	of automated
0.1900000000	of mathbb
0.1900000000	of mid
0.1900000000	of concept
0.1900000000	of spiking
0.1900000000	of biological
0.1900000000	of binary
0.1900000000	of small
0.1900000000	of samples
0.1900000000	of previous
0.1900000000	of continuous
0.1900000000	but suffers
0.1900000000	of dealing
0.1900000000	more human
0.1900000000	of individuals
0.1900000000	full advantage
0.1900000000	of estimating
0.1900000000	of black
0.1900000000	of testing
0.1900000000	given set
0.1900000000	given access
0.1900000000	only requires
0.1900000000	more similar
0.1900000000	of building
0.1900000000	via low
0.1900000000	more computationally
0.1900000000	of combining
0.1900000000	boundaries of
0.1900000000	an effort
0.1900000000	to balance
0.1900000000	to manipulate
0.1900000000	an f1
0.1900000000	any additional
0.1900000000	to read
0.1900000000	any pair
0.1900000000	any type
0.1900000000	an auto
0.1900000000	self adjusting
0.1900000000	self adaptive
0.1900000000	often leads
0.1900000000	to artificial
0.1900000000	an rnn
0.1900000000	to attain
0.1900000000	an internal
0.1900000000	thus resulting
0.1900000000	an extra
0.1900000000	an investigation
0.1900000000	an optimized
0.1900000000	to navigate
0.1900000000	to label
0.1900000000	to observe
0.1900000000	to machine
0.1900000000	to break
0.1900000000	an estimation
0.1900000000	to propose
0.1900000000	to respond
0.1900000000	an additive
0.1900000000	to summarize
0.1900000000	an enhanced
0.1900000000	to prune
0.1900000000	often suffer
0.1900000000	an array
0.1900000000	to check
0.1900000000	an explosion
0.1900000000	to sets
0.1900000000	to outperform
0.1900000000	to quickly
0.1900000000	to variations
0.1900000000	an unbiased
0.1900000000	an output
0.1900000000	to massive
0.1900000000	to drive
0.1900000000	to write
0.1900000000	these neural
0.1900000000	to previously
0.1900000000	an interpretation
0.1900000000	to draw
0.1900000000	these theoretical
0.1900000000	to enrich
0.1900000000	these findings
0.1900000000	these datasets
0.1900000000	these measures
0.1900000000	these observations
0.1900000000	differences among
0.1900000000	quantified by
0.1900000000	independent from
0.1900000000	by evaluating
0.1900000000	also provided
0.1900000000	by assuming
0.1900000000	by neural
0.1900000000	by deriving
0.1900000000	smooth and
0.1900000000	rates and
0.1900000000	also leads
0.1900000000	by frame
0.1900000000	also shown
0.1900000000	by reinforcement
0.1900000000	by imposing
0.1900000000	by generating
0.1900000000	by maximum
0.1900000000	also compared
0.1900000000	various synthetic
0.1900000000	further investigation
0.1900000000	between accuracy
0.1900000000	also investigate
0.1900000000	also applied
0.1900000000	by adopting
0.1900000000	by resorting
0.1900000000	better understand
0.1900000000	also derive
0.1900000000	further research
0.1900000000	also applicable
0.1900000000	also briefly
0.1900000000	locations and
0.1900000000	measurements and
0.1900000000	formalism for
0.1900000000	identified and
0.1900000000	and adapted
0.1900000000	predictions and
0.1900000000	with provable
0.1900000000	across languages
0.1900000000	progress on
0.1900000000	and elastic
0.1900000000	and cell
0.1900000000	and ground
0.1900000000	and applicability
0.1900000000	and upper
0.1900000000	and dimensionality
0.1900000000	and quality
0.1900000000	and generate
0.1900000000	and extend
0.1900000000	and effectiveness
0.1900000000	and evolutionary
0.1900000000	and area
0.1900000000	and pattern
0.1900000000	with variance
0.1900000000	and suffer
0.1900000000	and shown
0.1900000000	with existing
0.1900000000	and flexibility
0.1900000000	and black
0.1900000000	with numerous
0.1900000000	and analyzing
0.1900000000	and widely
0.1900000000	and dealing
0.1900000000	and noisy
0.1900000000	and properties
0.1900000000	and weakly
0.1900000000	and natural
0.1900000000	classification for
0.1900000000	and shape
0.1900000000	and practical
0.1900000000	with hundreds
0.1900000000	and link
0.1900000000	with small
0.1900000000	and classify
0.1900000000	and differences
0.1900000000	and characteristics
0.1900000000	with big
0.1900000000	and highlight
0.1900000000	well adapted
0.1900000000	well compared
0.1900000000	and running
0.1900000000	and local
0.1900000000	and possibly
0.1900000000	and max
0.1900000000	and 4
0.1900000000	and result
0.1900000000	connections with
0.1900000000	and testing
0.1900000000	and benefits
0.1900000000	and outlier
0.1900000000	networks from
0.1900000000	logic to
0.1900000000	and prone
0.1900000000	and dynamic
0.1900000000	and validate
0.1900000000	and logistic
0.1900000000	and solved
0.1900000000	nature and
0.1900000000	recognized as
0.1900000000	a solid
0.1900000000	a faster
0.1900000000	expressions for
0.1900000000	four types
0.1900000000	a reduction
0.1900000000	per round
0.1900000000	in remote
0.1900000000	available training
0.1900000000	a comparable
0.1900000000	a formulation
0.1900000000	a riemannian
0.1900000000	a valuable
0.1900000000	a decomposition
0.1900000000	or set
0.1900000000	a speed
0.1900000000	in computed
0.1900000000	a nearest
0.1900000000	a couple
0.1900000000	a bipartite
0.1900000000	a period
0.1900000000	a prerequisite
0.1900000000	a mid
0.1900000000	in graphical
0.1900000000	a coherent
0.1900000000	a tedious
0.1900000000	a procedure
0.1900000000	a particle
0.1900000000	a matter
0.1900000000	a combined
0.1900000000	a software
0.1900000000	a majority
0.1900000000	a convergence
0.1900000000	in artificial
0.1900000000	in mathbb
0.1900000000	a constrained
0.1900000000	a selection
0.1900000000	a previous
0.1900000000	a dimensionality
0.1900000000	a stable
0.1900000000	a nuclear
0.1900000000	a primary
0.1900000000	a stack
0.1900000000	a subclass
0.1900000000	a sensitivity
0.1900000000	a recall
0.1900000000	a realistic
0.1900000000	in mind
0.1900000000	a branch
0.1900000000	in presence
0.1900000000	a composition
0.1900000000	a drop
0.1900000000	a concrete
0.1900000000	a setting
0.1900000000	a composite
0.1900000000	a distance
0.1900000000	a bi
0.1900000000	a correspondence
0.1900000000	in feature
0.1900000000	in big
0.1900000000	in ct
0.1900000000	without loss
0.1900000000	or equal
0.1900000000	reports of
0.1890000000	a novel method based
0.1890000000	a non convex optimization
0.1890000000	the effectiveness and robustness
0.1890000000	the point of view
0.1890000000	in order to deal
0.1890000000	the art in terms
0.1890000000	a new approach based
0.1890000000	in terms of solution
0.1890000000	a variety of data
0.1890000000	a variety of tasks
0.1890000000	the field of deep
0.1890000000	the field of machine
0.1890000000	extensive experimental results on
0.1890000000	computer vision and pattern
0.1890000000	a new algorithm based
0.1890000000	a new method based
0.1890000000	the amount of training
0.1890000000	a union of low
0.1890000000	the general problem of
0.1890000000	the energy consumption of
0.1890000000	the state of art
0.1890000000	amount of training
0.1890000000	used to estimate
0.1890000000	the true distribution
0.1890000000	the same order
0.1890000000	with two types
0.1890000000	three different types
0.1890000000	and quantitative evaluation
0.1890000000	a thorough analysis
0.1890000000	up to logarithmic
0.1890000000	the same class
0.1890000000	the same set
0.1890000000	an f measure
0.1890000000	able to deal
0.1890000000	able to cope
0.1890000000	and outdoor environments
0.1890000000	able to predict
0.1890000000	in previous studies
0.1890000000	do not rely
0.1890000000	dimensional time series
0.1890000000	optimization method to
0.1890000000	rather than relying
0.1890000000	the stable models
0.1890000000	do not require
0.1890000000	do not account
0.1890000000	do not depend
0.1890000000	such as logistic
0.1890000000	such as semantic
0.1890000000	in many application
0.1890000000	a novel interpretation
0.1890000000	a novel set
0.1890000000	a novel analysis
0.1890000000	a novel combination
0.1890000000	a novel form
0.1890000000	in many machine
0.1890000000	a novel application
0.1890000000	the first one
0.1890000000	a novel type
0.1890000000	a novel family
0.1890000000	a novel semi
0.1890000000	a novel variant
0.1890000000	a better understanding
0.1890000000	a certain number
0.1890000000	a given level
0.1890000000	such as speech
0.1890000000	the 3d structure
0.1890000000	the good performance
0.1890000000	information from text
0.1890000000	convergence rate for
0.1890000000	time with respect
0.1890000000	interest in recent
0.1890000000	number of variables
0.1890000000	described in terms
0.1890000000	statistical properties of
0.1890000000	search space and
0.1890000000	a new machine
0.1890000000	and graph theory
0.1890000000	for nonconvex optimization
0.1890000000	a high performance
0.1890000000	a new kind
0.1890000000	a new version
0.1890000000	a new loss
0.1890000000	a new generation
0.1890000000	a new variant
0.1890000000	a new set
0.1890000000	on two publicly
0.1890000000	a particular case
0.1890000000	a new family
0.1890000000	multiple time series
0.1890000000	the other based
0.1890000000	on two benchmark
0.1890000000	set of attributes
0.1890000000	many computer vision
0.1890000000	back propagation algorithm
0.1890000000	an overall accuracy
0.1890000000	the most widely
0.1890000000	to take advantage
0.1890000000	in time polynomial
0.1890000000	the most commonly
0.1890000000	this work focuses
0.1890000000	learning algorithms to
0.1890000000	the activations of
0.1890000000	image representation for
0.1890000000	the next generation
0.1890000000	deep learning from
0.1890000000	model needs to
0.1890000000	for few shot
0.1890000000	mixtures of experts
0.1890000000	a different set
0.1890000000	to keep track
0.1890000000	given in terms
0.1890000000	for low dose
0.1890000000	the foundations of
0.1890000000	a very challenging
0.1890000000	the two kinds
0.1890000000	a data model
0.1890000000	training data as
0.1890000000	does not depend
0.1890000000	does not suffer
0.1890000000	does not rely
0.1890000000	the system consists
0.1890000000	both in terms
0.1890000000	both in theory
0.1890000000	recognition of isolated
0.1890000000	of human brain
0.1890000000	a brief introduction
0.1890000000	a brief description
0.1890000000	object categories and
0.1890000000	graph representation of
0.1890000000	due to lack
0.1890000000	used in conjunction
0.1890000000	an indication of
0.1890000000	with one hidden
0.1890000000	very competitive results
0.1890000000	applied to other
0.1890000000	the available training
0.1890000000	the best performance
0.1890000000	gradient methods for
0.1890000000	used in combination
0.1890000000	iterations of
0.1890000000	work focuses
0.1890000000	one hidden
0.1890000000	inputs to
0.1890000000	size n
0.1890000000	environments with
0.1890000000	new light
0.1890000000	still rely
0.1890000000	root of
0.1890000000	environments and
0.1890000000	mostly based
0.1890000000	answer to
0.1890000000	this corresponds
0.1890000000	sub linear
0.1890000000	this implies
0.1890000000	new types
0.1890000000	both binary
0.1890000000	both continuous
0.1890000000	both based
0.1890000000	both artificial
0.1890000000	both approaches
0.1890000000	show encouraging
0.1890000000	this technical
0.1890000000	one kind
0.1890000000	sampling for
0.1890000000	one iteration
0.1890000000	other machine
0.1890000000	one based
0.1890000000	other recently
0.1890000000	both speed
0.1890000000	other parts
0.1890000000	tree and
0.1890000000	this fact
0.1890000000	this document
0.1890000000	still remains
0.1890000000	new algorithms
0.1890000000	this position
0.1890000000	both unsupervised
0.1890000000	this results
0.1890000000	show empirically
0.1890000000	both static
0.1890000000	tree by
0.1890000000	ones based
0.1890000000	few training
0.1890000000	then based
0.1890000000	this simple
0.1890000000	tree like
0.1890000000	show experimental
0.1890000000	influence of
0.1890000000	usually based
0.1890000000	lies at
0.1890000000	first search
0.1890000000	as high
0.1890000000	two publicly
0.1890000000	different settings
0.1890000000	less number
0.1890000000	particular object
0.1890000000	use cases
0.1890000000	two key
0.1890000000	several commonly
0.1890000000	different lighting
0.1890000000	several state
0.1890000000	as low
0.1890000000	3d scene
0.1890000000	generate new
0.1890000000	as defined
0.1890000000	different versions
0.1890000000	different parts
0.1890000000	s notion
0.1890000000	different machine
0.1890000000	several publicly
0.1890000000	different datasets
0.1890000000	several orders
0.1890000000	ontology of
0.1890000000	several machine
0.1890000000	several variants
0.1890000000	first contribution
0.1890000000	first introduce
0.1890000000	several widely
0.1890000000	several recently
0.1890000000	several application
0.1890000000	three data
0.1890000000	3d fully
0.1890000000	than state
0.1890000000	as long
0.1890000000	as large
0.1890000000	two variants
0.1890000000	as black
0.1890000000	as measured
0.1890000000	as special
0.1890000000	as shown
0.1890000000	two machine
0.1890000000	as demonstrated
0.1890000000	two case
0.1890000000	two widely
0.1890000000	two datasets
0.1890000000	two data
0.1890000000	two parts
0.1890000000	two stages
0.1890000000	processes and
0.1890000000	two orders
0.1890000000	distribution by
0.1890000000	several properties
0.1890000000	three benchmark
0.1890000000	comparisons of
0.1890000000	3d action
0.1890000000	3d point
0.1890000000	resolution on
0.1890000000	each sample
0.1890000000	out cross
0.1890000000	for intrusion
0.1890000000	realistic looking
0.1890000000	for dimensionality
0.1890000000	for inferring
0.1890000000	from noisy
0.1890000000	from images
0.1890000000	for emotion
0.1890000000	many tasks
0.1890000000	for spatio
0.1890000000	however state
0.1890000000	for dealing
0.1890000000	on riemannian
0.1890000000	for logic
0.1890000000	many optimization
0.1890000000	on social
0.1890000000	from observational
0.1890000000	for ell
0.1890000000	for feed
0.1890000000	many existing
0.1890000000	many high
0.1890000000	for black
0.1890000000	many types
0.1890000000	many commonly
0.1890000000	for fine
0.1890000000	for multiple
0.1890000000	on challenging
0.1890000000	many nlp
0.1890000000	each voxel
0.1890000000	on mobile
0.1890000000	for arbitrary
0.1890000000	for reinforcement
0.1890000000	for action
0.1890000000	from mr
0.1890000000	for creating
0.1890000000	from empirical
0.1890000000	k support
0.1890000000	for strongly
0.1890000000	for testing
0.1890000000	for recommender
0.1890000000	control for
0.1890000000	for application
0.1890000000	on cifar
0.1890000000	for anomaly
0.1890000000	research interest
0.1890000000	from publicly
0.1890000000	properties for
0.1890000000	each feature
0.1890000000	considered for
0.1890000000	each convolutional
0.1890000000	order and
0.1890000000	trajectories of
0.1890000000	anomalies in
0.1890000000	quadratic time
0.1890000000	auctions with
0.1890000000	near real
0.1890000000	some state
0.1890000000	the suitability
0.1890000000	the detected
0.1890000000	the centers
0.1890000000	em and
0.1890000000	qa and
0.1890000000	norms in
0.1890000000	the reach
0.1890000000	the duration
0.1890000000	the good
0.1890000000	the handling
0.1890000000	the interplay
0.1890000000	the formation
0.1890000000	the university
0.1890000000	the implications
0.1890000000	the increase
0.1890000000	the contributions
0.1890000000	some aspects
0.1890000000	mainly based
0.1890000000	certain classes
0.1890000000	the baselines
0.1890000000	not present
0.1890000000	the political
0.1890000000	the usability
0.1890000000	the steady
0.1890000000	the proceedings
0.1890000000	the philosophy
0.1890000000	the dueling
0.1890000000	the many
0.1890000000	the guided
0.1890000000	the informativeness
0.1890000000	the cityscapes
0.1890000000	the integrity
0.1890000000	the aid
0.1890000000	the deployment
0.1890000000	the gold
0.1890000000	the limitation
0.1890000000	the incorporation
0.1890000000	the tradeoff
0.1890000000	the run
0.1890000000	the practicality
0.1890000000	the spirit
0.1890000000	the dimensions
0.1890000000	the goodness
0.1890000000	the shortcomings
0.1890000000	the proliferation
0.1890000000	the advancement
0.1890000000	the scarcity
0.1890000000	not based
0.1890000000	the penn
0.1890000000	the considered
0.1890000000	the span
0.1890000000	the advent
0.1890000000	the locations
0.1890000000	the members
0.1890000000	the publicly
0.1890000000	the superiority
0.1890000000	the viewpoint
0.1890000000	not restricted
0.1890000000	filter to
0.1890000000	the balance
0.1890000000	the transferability
0.1890000000	the developing
0.1890000000	the weaknesses
0.1890000000	the alternating
0.1890000000	the fields
0.1890000000	the functioning
0.1890000000	the removal
0.1890000000	the essential
0.1890000000	some light
0.1890000000	the era
0.1890000000	the rich
0.1890000000	the mismatch
0.1890000000	the specificity
0.1890000000	the expressiveness
0.1890000000	the kalman
0.1890000000	the realm
0.1890000000	the correctness
0.1890000000	the qualities
0.1890000000	the adequacy
0.1890000000	the magnitude
0.1890000000	the automation
0.1890000000	the leading
0.1890000000	the direct
0.1890000000	the determination
0.1890000000	the frank
0.1890000000	the onset
0.1890000000	the prevalence
0.1890000000	the distinction
0.1890000000	the running
0.1890000000	the consideration
0.1890000000	the generalizability
0.1890000000	the derived
0.1890000000	the commonly
0.1890000000	not limited
0.1890000000	the reader
0.1890000000	not included
0.1890000000	the recently
0.1890000000	the viability
0.1890000000	the sizes
0.1890000000	the promise
0.1890000000	the capabilities
0.1890000000	the essence
0.1890000000	the merits
0.1890000000	the trade
0.1890000000	the contents
0.1890000000	the validity
0.1890000000	the bottleneck
0.1890000000	the adoption
0.1890000000	the limits
0.1890000000	some properties
0.1890000000	the elements
0.1890000000	the meanings
0.1890000000	some experimental
0.1890000000	the functionality
0.1890000000	the simplicity
0.1890000000	the popularity
0.1890000000	the nervous
0.1890000000	the significance
0.1890000000	the uniqueness
0.1890000000	the normalization
0.1890000000	the utilization
0.1890000000	contributions of
0.1890000000	the concatenation
0.1890000000	the roots
0.1890000000	the behaviour
0.1890000000	the mahalanobis
0.1890000000	the strengths
0.1890000000	the progression
0.1890000000	the fidelity
0.1890000000	some machine
0.1890000000	sets to
0.1890000000	using reinforcement
0.1890000000	all cases
0.1890000000	known lower
0.1890000000	using observational
0.1890000000	using tools
0.1890000000	structure with
0.1890000000	using machine
0.1890000000	term and
0.1890000000	such prior
0.1890000000	over multiple
0.1890000000	using publicly
0.1890000000	through numerical
0.1890000000	using pre
0.1890000000	using ideas
0.1890000000	system consists
0.1890000000	states for
0.1890000000	using genetic
0.1890000000	pca in
0.1890000000	over state
0.1890000000	using support
0.1890000000	system consisting
0.1890000000	popular in
0.1890000000	through machine
0.1890000000	using gradient
0.1890000000	such latent
0.1890000000	system based
0.1890000000	all aspects
0.1890000000	all based
0.1890000000	such methods
0.1890000000	using transfer
0.1890000000	simple yet
0.1890000000	sgd for
0.1890000000	adapted for
0.1890000000	decision to
0.1890000000	automatic 3d
0.1890000000	very competitive
0.1890000000	against adversarial
0.1890000000	analyzed in
0.1890000000	very sensitive
0.1890000000	very close
0.1890000000	more fine
0.1890000000	of crucial
0.1890000000	of general
0.1890000000	of real
0.1890000000	only depends
0.1890000000	of road
0.1890000000	of standard
0.1890000000	more sensitive
0.1890000000	only focus
0.1890000000	alignment between
0.1890000000	no knowledge
0.1890000000	level to
0.1890000000	more precise
0.1890000000	of input
0.1890000000	provided to
0.1890000000	of current
0.1890000000	only based
0.1890000000	of generating
0.1890000000	of parameters
0.1890000000	but suffer
0.1890000000	of experts
0.1890000000	of paramount
0.1890000000	of candidate
0.1890000000	of unknown
0.1890000000	of spatio
0.1890000000	only deal
0.1890000000	of publicly
0.1890000000	more stable
0.1890000000	histograms of
0.1890000000	reconstruction and
0.1890000000	of applying
0.1890000000	via reinforcement
0.1890000000	vary in
0.1890000000	polarity and
0.1890000000	an increase
0.1890000000	population in
0.1890000000	little training
0.1890000000	generation for
0.1890000000	an integration
0.1890000000	an autoencoder
0.1890000000	to rely
0.1890000000	an auc
0.1890000000	to 2d
0.1890000000	any form
0.1890000000	any knowledge
0.1890000000	any feature
0.1890000000	any black
0.1890000000	benchmarks show
0.1890000000	benchmarks for
0.1890000000	self similarity
0.1890000000	to refer
0.1890000000	based 3d
0.1890000000	often lead
0.1890000000	often based
0.1890000000	often rely
0.1890000000	thus leading
0.1890000000	mean average
0.1890000000	an exhaustive
0.1890000000	an interpretable
0.1890000000	to compactly
0.1890000000	to examine
0.1890000000	an emphasis
0.1890000000	an understanding
0.1890000000	to adjust
0.1890000000	to reproduce
0.1890000000	to initialize
0.1890000000	an estimate
0.1890000000	to execute
0.1890000000	to compress
0.1890000000	to highlight
0.1890000000	to gather
0.1890000000	an ising
0.1890000000	an operator
0.1890000000	to resort
0.1890000000	to interact
0.1890000000	to increase
0.1890000000	parameter and
0.1890000000	to employ
0.1890000000	an assessment
0.1890000000	an illustration
0.1890000000	an independent
0.1890000000	to participate
0.1890000000	to belong
0.1890000000	an ell
0.1890000000	often results
0.1890000000	an adaptation
0.1890000000	an alternating
0.1890000000	to dealing
0.1890000000	while simultaneously
0.1890000000	while providing
0.1890000000	to treat
0.1890000000	these representations
0.1890000000	these and
0.1890000000	these ideas
0.1890000000	mixtures and
0.1890000000	cameras and
0.1890000000	features using
0.1890000000	by interacting
0.1890000000	by modifying
0.1890000000	by focusing
0.1890000000	by treating
0.1890000000	by identifying
0.1890000000	by cross
0.1890000000	by domain
0.1890000000	by making
0.1890000000	by selecting
0.1890000000	by relying
0.1890000000	at scale
0.1890000000	by adapting
0.1890000000	at test
0.1890000000	large enough
0.1890000000	identification using
0.1890000000	time compared
0.1890000000	also extend
0.1890000000	various real
0.1890000000	also experiment
0.1890000000	also applies
0.1890000000	also lead
0.1890000000	between images
0.1890000000	by replacing
0.1890000000	by gradient
0.1890000000	by contrast
0.1890000000	target and
0.1890000000	by defining
0.1890000000	by adjusting
0.1890000000	at run
0.1890000000	at training
0.1890000000	time linear
0.1890000000	better compared
0.1890000000	tasks of
0.1890000000	various practical
0.1890000000	measures in
0.1890000000	further demonstrate
0.1890000000	exchange and
0.1890000000	and usefulness
0.1890000000	brain like
0.1890000000	and accounts
0.1890000000	uses machine
0.1890000000	far reaching
0.1890000000	with unknown
0.1890000000	achieved on
0.1890000000	those generated
0.1890000000	and improvement
0.1890000000	non maximum
0.1890000000	interpretation and
0.1890000000	those based
0.1890000000	well separated
0.1890000000	and community
0.1890000000	well approximated
0.1890000000	and anomaly
0.1890000000	and stl
0.1890000000	and understand
0.1890000000	and rely
0.1890000000	and versatility
0.1890000000	with emphasis
0.1890000000	with varying
0.1890000000	and relies
0.1890000000	and study
0.1890000000	and shows
0.1890000000	and generality
0.1890000000	and tracking
0.1890000000	and effective
0.1890000000	and scalable
0.1890000000	with state
0.1890000000	and graphics
0.1890000000	with fine
0.1890000000	with ground
0.1890000000	with relu
0.1890000000	and fast
0.1890000000	with classification
0.1890000000	with application
0.1890000000	and remote
0.1890000000	and produces
0.1890000000	with access
0.1890000000	and dual
0.1890000000	with transfer
0.1890000000	with reinforcement
0.1890000000	and introduce
0.1890000000	survey on
0.1890000000	and control
0.1890000000	and reduce
0.1890000000	with answer
0.1890000000	and train
0.1890000000	and publicly
0.1890000000	with regard
0.1890000000	with genetic
0.1890000000	with function
0.1890000000	and leads
0.1890000000	and suggest
0.1890000000	and establish
0.1890000000	n body
0.1890000000	and reason
0.1890000000	closed under
0.1890000000	arrangement of
0.1890000000	and ethnicity
0.1890000000	and relation
0.1890000000	gains over
0.1890000000	during inference
0.1890000000	illustrated with
0.1890000000	a generalisation
0.1890000000	in form
0.1890000000	a mini
0.1890000000	a reduced
0.1890000000	a discussion
0.1890000000	four state
0.1890000000	without access
0.1890000000	a wealth
0.1890000000	a decrease
0.1890000000	a meta
0.1890000000	in recommender
0.1890000000	in polynomial
0.1890000000	under reasonable
0.1890000000	in pattern
0.1890000000	in previous
0.1890000000	in response
0.1890000000	available online
0.1890000000	a public
0.1890000000	a connection
0.1890000000	in agreement
0.1890000000	a surge
0.1890000000	without making
0.1890000000	a sliding
0.1890000000	a negative
0.1890000000	a kalman
0.1890000000	a point
0.1890000000	a relaxation
0.1890000000	a blur
0.1890000000	a power
0.1890000000	in light
0.1890000000	in line
0.1890000000	in accordance
0.1890000000	a formalization
0.1890000000	a spectrum
0.1890000000	a characterization
0.1890000000	a coarse
0.1890000000	a freely
0.1890000000	in today
0.1890000000	a big
0.1890000000	in f1
0.1890000000	a publicly
0.1890000000	a variation
0.1890000000	a modification
0.1890000000	a gold
0.1890000000	in mixture
0.1890000000	in feed
0.1890000000	a massively
0.1890000000	in relation
0.1890000000	in dealing
0.1890000000	in transfer
0.1890000000	a literature
0.1890000000	a strategy
0.1890000000	percentage of
0.1890000000	in combination
0.1890000000	a pseudo
0.1890000000	in robotics
0.1890000000	a core
0.1890000000	a hilbert
0.1890000000	in conjunction
0.1890000000	a naive
0.1890000000	a spatio
0.1890000000	a learned
0.1890000000	a bio
0.1890000000	in support
0.1890000000	without fine
0.1890000000	in reinforcement
0.1890000000	in euclidean
0.1890000000	a preprocessing
0.1890000000	a commonly
0.1890000000	a companion
0.1890000000	a bridge
0.1890000000	a held
0.1890000000	a feed
0.1890000000	or rely
0.1890000000	a fragment
0.1890000000	in recommendation
0.1890000000	a multimodal
0.1890000000	a relationship
0.1890000000	in favor
0.1890000000	in predicting
0.1890000000	a biologically
0.1890000000	a combinatorial
0.1890000000	in view
0.1890000000	a virtual
0.1890000000	a portion
0.1890000000	a version
0.1890000000	a fraction
0.1890000000	a humanoid
0.1890000000	a posterior
0.1890000000	a parameter
0.1890000000	a tractable
0.1890000000	a precise
0.1890000000	a purely
0.1890000000	a member
0.1890000000	a balance
0.1890000000	a mismatch
0.1890000000	a candidate
0.1890000000	a bounding
0.1890000000	a qualitative
0.1890000000	a tradeoff
0.1890000000	a considerable
0.1890000000	a compromise
0.1890000000	a regularized
0.1890000000	a union
0.1890000000	hierarchy to
0.1890000000	delta and
0.1890000000	landscape of
0.1890000000	satisfied by
0.1880000000	very deep convolutional neural networks
0.1880000000	for multi task learning
0.1880000000	the value of information
0.1880000000	the presence of outliers
0.1880000000	in terms of performance
0.1880000000	used to perform
0.1880000000	used to solve
0.1880000000	the presentation of
0.1880000000	research directions in
0.1880000000	used to predict
0.1880000000	belief propagation for
0.1880000000	able to generate
0.1880000000	the following question
0.1880000000	the failure of
0.1880000000	of image quality
0.1880000000	shortest path between
0.1880000000	a novel model
0.1880000000	representation learning and
0.1880000000	de facto standard
0.1880000000	and domain knowledge
0.1880000000	order to reduce
0.1880000000	the results from
0.1880000000	of latent variables
0.1880000000	a deep architecture
0.1880000000	the most relevant
0.1880000000	rough sets and
0.1880000000	image segmentation by
0.1880000000	the learned model
0.1880000000	the latent representation
0.1880000000	the most successful
0.1880000000	the proposed formulation
0.1880000000	a parametric model
0.1880000000	on big data
0.1880000000	as high as
0.1880000000	game theory to
0.1880000000	on active learning
0.1880000000	in real life
0.1880000000	the two sample
0.1880000000	on several public
0.1880000000	a method to
0.1880000000	a single machine
0.1880000000	the paper discusses
0.1880000000	the formalism of
0.1880000000	the model based
0.1880000000	partition functions of
0.1880000000	regression models for
0.1880000000	o k log
0.1880000000	users in
0.1880000000	integrated in
0.1880000000	this formulation
0.1880000000	dnns to
0.1880000000	this procedure
0.1880000000	both labeled
0.1880000000	this regard
0.1880000000	this domain
0.1880000000	solving in
0.1880000000	then propose
0.1880000000	one layer
0.1880000000	this contribution
0.1880000000	new features
0.1880000000	this objective
0.1880000000	both tasks
0.1880000000	this suggests
0.1880000000	work aims
0.1880000000	agent and
0.1880000000	ranking from
0.1880000000	regret o
0.1880000000	different classes
0.1880000000	different cnn
0.1880000000	than traditional
0.1880000000	two recurrent
0.1880000000	different approaches
0.1880000000	different scales
0.1880000000	two steps
0.1880000000	shortage of
0.1880000000	two popular
0.1880000000	two stream
0.1880000000	into consideration
0.1880000000	several challenging
0.1880000000	incompatible with
0.1880000000	for persian
0.1880000000	for age
0.1880000000	for generation
0.1880000000	for designing
0.1880000000	for segmenting
0.1880000000	for discovering
0.1880000000	on mnist
0.1880000000	for characterizing
0.1880000000	on binary
0.1880000000	from observed
0.1880000000	on imagenet
0.1880000000	for obtaining
0.1880000000	on multi
0.1880000000	for automated
0.1880000000	for developing
0.1880000000	for english
0.1880000000	for fast
0.1880000000	for inverse
0.1880000000	each object
0.1880000000	modeling to
0.1880000000	code with
0.1880000000	on semi
0.1880000000	2d human
0.1880000000	plug and
0.1880000000	complete for
0.1880000000	potentially useful
0.1880000000	relevance to
0.1880000000	the equilibrium
0.1880000000	the ideal
0.1880000000	the campaign
0.1880000000	c arm
0.1880000000	the explosive
0.1880000000	the measured
0.1880000000	the hsi
0.1880000000	the perceptual
0.1880000000	the sources
0.1880000000	the lv
0.1880000000	the von
0.1880000000	not clear
0.1880000000	not depend
0.1880000000	the situation
0.1880000000	the early
0.1880000000	the contrary
0.1880000000	the dominant
0.1880000000	the unique
0.1880000000	the developed
0.1880000000	dictionary with
0.1880000000	filter on
0.1880000000	the loop
0.1880000000	the related
0.1880000000	the typical
0.1880000000	the growing
0.1880000000	the chosen
0.1880000000	the derivatives
0.1880000000	the box
0.1880000000	the combined
0.1880000000	the forward
0.1880000000	salt and
0.1880000000	encoding with
0.1880000000	memory as
0.1880000000	using hand
0.1880000000	such networks
0.1880000000	talk about
0.1880000000	over fitting
0.1880000000	using artificial
0.1880000000	such kind
0.1880000000	using interval
0.1880000000	of conjunctive
0.1880000000	of finding
0.1880000000	frame to
0.1880000000	sensing of
0.1880000000	useful information
0.1880000000	matching and
0.1880000000	more reliable
0.1880000000	of mutual
0.1880000000	more effectively
0.1880000000	more realistic
0.1880000000	of discrete
0.1880000000	of traditional
0.1880000000	of simple
0.1880000000	complex 3d
0.1880000000	of logistic
0.1880000000	cnn in
0.1880000000	of synthetic
0.1880000000	of noisy
0.1880000000	of reducing
0.1880000000	of statistical
0.1880000000	of classical
0.1880000000	more informative
0.1880000000	of naive
0.1880000000	of evolvability
0.1880000000	very deep
0.1880000000	of high
0.1880000000	more expressive
0.1880000000	more discriminative
0.1880000000	paper as
0.1880000000	useful tools
0.1880000000	more complicated
0.1880000000	more flexible
0.1880000000	ga and
0.1880000000	arms in
0.1880000000	an experiment
0.1880000000	an inverse
0.1880000000	to annotate
0.1880000000	these questions
0.1880000000	an adversary
0.1880000000	an edge
0.1880000000	to aggregate
0.1880000000	an oracle
0.1880000000	to aid
0.1880000000	to formulate
0.1880000000	to text
0.1880000000	to deploy
0.1880000000	to parallelize
0.1880000000	to carry
0.1880000000	an excellent
0.1880000000	to monitor
0.1880000000	to induce
0.1880000000	an attractive
0.1880000000	an implicit
0.1880000000	to scale
0.1880000000	an ideal
0.1880000000	an analytical
0.1880000000	to noisy
0.1880000000	to uncover
0.1880000000	to introduce
0.1880000000	to result
0.1880000000	to share
0.1880000000	an auxiliary
0.1880000000	to conduct
0.1880000000	to augment
0.1880000000	to reject
0.1880000000	while requiring
0.1880000000	while ensuring
0.1880000000	partition of
0.1880000000	these components
0.1880000000	rl in
0.1880000000	time scale
0.1880000000	formulation and
0.1880000000	employed by
0.1880000000	time frequency
0.1880000000	trends and
0.1880000000	by constructing
0.1880000000	by experiments
0.1880000000	by computing
0.1880000000	by exploring
0.1880000000	by machine
0.1880000000	also develop
0.1880000000	by transferring
0.1880000000	by directly
0.1880000000	further propose
0.1880000000	related work
0.1880000000	by observing
0.1880000000	by extending
0.1880000000	better generalization
0.1880000000	questions from
0.1880000000	by representing
0.1880000000	various applications
0.1880000000	horizontal and
0.1880000000	and improves
0.1880000000	and extensions
0.1880000000	attend to
0.1880000000	across domains
0.1880000000	and do
0.1880000000	and explore
0.1880000000	and high
0.1880000000	and sizes
0.1880000000	with low
0.1880000000	with increasing
0.1880000000	with similar
0.1880000000	and predict
0.1880000000	with label
0.1880000000	non asymptotic
0.1880000000	and computation
0.1880000000	and maintain
0.1880000000	and report
0.1880000000	and outperforms
0.1880000000	with support
0.1880000000	and low
0.1880000000	with arbitrary
0.1880000000	and examine
0.1880000000	and subsequently
0.1880000000	and character
0.1880000000	end for
0.1880000000	clustered together
0.1880000000	a threshold
0.1880000000	1 bit
0.1880000000	in short
0.1880000000	in nature
0.1880000000	a successful
0.1880000000	in higher
0.1880000000	in visual
0.1880000000	without altering
0.1880000000	a noisy
0.1880000000	10 dataset
0.1880000000	a simplified
0.1880000000	a differentiable
0.1880000000	a parametric
0.1880000000	a restricted
0.1880000000	a bernoulli
0.1880000000	a final
0.1880000000	a numerical
0.1880000000	a dense
0.1880000000	a predefined
0.1880000000	in semi
0.1880000000	road and
0.1880000000	per class
0.1880000000	in advance
0.1880000000	a representative
0.1880000000	in aerial
0.1880000000	a 2d
0.1880000000	in solving
0.1880000000	a competitive
0.1880000000	per image
0.1880000000	1 sqrt
0.1880000000	a process
0.1880000000	a logical
0.1880000000	a static
0.1880000000	sure convergence
0.1880000000	a compositional
0.1880000000	a medical
0.1880000000	a recursive
0.1880000000	in principle
0.1880000000	a vast
0.1880000000	a traditional
0.1880000000	sentences of
0.1880000000	in experiments
0.1880000000	characterisation of
0.1870000000	a high resolution image
0.1870000000	a comparative analysis of
0.1870000000	in deep reinforcement learning
0.1870000000	spatial and temporal information
0.1870000000	k means clustering and
0.1870000000	the euclidean distance between
0.1870000000	for low rank matrix
0.1870000000	performance than state of
0.1870000000	a vital role in
0.1870000000	a major challenge in
0.1870000000	results than state of
0.1870000000	mnist cifar 10 and
0.1870000000	used to improve
0.1870000000	n 3 2
0.1870000000	and dempster shafer
0.1870000000	recall and f
0.1870000000	used to learn
0.1870000000	able to achieve
0.1870000000	able to capture
0.1870000000	learning methods for
0.1870000000	retrieval based on
0.1870000000	number of vertices
0.1870000000	segmentation based on
0.1870000000	rgb d video
0.1870000000	a matrix completion
0.1870000000	the other two
0.1870000000	set of potential
0.1870000000	the confidence of
0.1870000000	vision and robotics
0.1870000000	this work proposes
0.1870000000	these two approaches
0.1870000000	robust to adversarial
0.1870000000	detection in images
0.1870000000	process in order
0.1870000000	training and prediction
0.1870000000	the best performing
0.1870000000	new loss
0.1870000000	agnostic to
0.1870000000	this direction
0.1870000000	defined and
0.1870000000	both cases
0.1870000000	this reason
0.1870000000	implementation in
0.1870000000	this project
0.1870000000	this observation
0.1870000000	this note
0.1870000000	other approaches
0.1870000000	this letter
0.1870000000	this enables
0.1870000000	this strategy
0.1870000000	this information
0.1870000000	seen classes
0.1870000000	this manuscript
0.1870000000	this analysis
0.1870000000	this means
0.1870000000	model provides
0.1870000000	this representation
0.1870000000	this phenomenon
0.1870000000	this property
0.1870000000	one dimensional
0.1870000000	this architecture
0.1870000000	probabilities and
0.1870000000	different modalities
0.1870000000	change of
0.1870000000	first international
0.1870000000	two distinct
0.1870000000	s performance
0.1870000000	case and
0.1870000000	different domains
0.1870000000	different languages
0.1870000000	different ways
0.1870000000	3d convnets
0.1870000000	different tasks
0.1870000000	two separate
0.1870000000	two stage
0.1870000000	two important
0.1870000000	for optimizing
0.1870000000	each agent
0.1870000000	each cluster
0.1870000000	techniques on
0.1870000000	2d images
0.1870000000	however existing
0.1870000000	on multiple
0.1870000000	zero resource
0.1870000000	collected in
0.1870000000	for selecting
0.1870000000	for measuring
0.1870000000	for online
0.1870000000	on graphs
0.1870000000	for robust
0.1870000000	for handling
0.1870000000	for future
0.1870000000	for reducing
0.1870000000	on standard
0.1870000000	on twitter
0.1870000000	many cases
0.1870000000	for recognizing
0.1870000000	for assessing
0.1870000000	deformable 3d
0.1870000000	for studying
0.1870000000	from raw
0.1870000000	for determining
0.1870000000	for general
0.1870000000	for unsupervised
0.1870000000	for performing
0.1870000000	each task
0.1870000000	many researchers
0.1870000000	each frame
0.1870000000	mounted on
0.1870000000	separated by
0.1870000000	the ijb
0.1870000000	correlates with
0.1870000000	required in
0.1870000000	the resultant
0.1870000000	ner system
0.1870000000	the optimum
0.1870000000	relationship among
0.1870000000	the internal
0.1870000000	the mountain
0.1870000000	the fastest
0.1870000000	the methodology
0.1870000000	the presented
0.1870000000	the selected
0.1870000000	the mmse
0.1870000000	the latest
0.1870000000	the radio
0.1870000000	the public
0.1870000000	the mathematical
0.1870000000	the diagnostic
0.1870000000	the respective
0.1870000000	the important
0.1870000000	the experiment
0.1870000000	the smallest
0.1870000000	the raw
0.1870000000	the community
0.1870000000	the strong
0.1870000000	the lowest
0.1870000000	the challenges
0.1870000000	the central
0.1870000000	discovery in
0.1870000000	operations and
0.1870000000	operates in
0.1870000000	all previous
0.1870000000	system identification
0.1870000000	such problems
0.1870000000	management and
0.1870000000	resilient to
0.1870000000	more generally
0.1870000000	terms in
0.1870000000	cues for
0.1870000000	of designing
0.1870000000	of research
0.1870000000	more challenging
0.1870000000	more efficiently
0.1870000000	very fast
0.1870000000	very simple
0.1870000000	very efficient
0.1870000000	of modern
0.1870000000	of matrices
0.1870000000	more accurately
0.1870000000	of natural
0.1870000000	of arbitrary
0.1870000000	of emotions
0.1870000000	of noun
0.1870000000	of one
0.1870000000	of syntax
0.1870000000	reformulation of
0.1870000000	engaged in
0.1870000000	converging to
0.1870000000	located in
0.1870000000	to cluster
0.1870000000	to prove
0.1870000000	to accommodate
0.1870000000	to include
0.1870000000	projection of
0.1870000000	individuals and
0.1870000000	self adaptation
0.1870000000	to assist
0.1870000000	to translate
0.1870000000	to meet
0.1870000000	an emerging
0.1870000000	to visualize
0.1870000000	to regularize
0.1870000000	to store
0.1870000000	presented as
0.1870000000	to elicit
0.1870000000	to directly
0.1870000000	to cover
0.1870000000	to analyse
0.1870000000	an easy
0.1870000000	to decompose
0.1870000000	to process
0.1870000000	to separate
0.1870000000	to eliminate
0.1870000000	to fit
0.1870000000	to promote
0.1870000000	to transform
0.1870000000	to gain
0.1870000000	to update
0.1870000000	to tune
0.1870000000	to guarantee
0.1870000000	to enforce
0.1870000000	to embed
0.1870000000	to communicate
0.1870000000	to simultaneously
0.1870000000	to align
0.1870000000	to replace
0.1870000000	to deliver
0.1870000000	an abstract
0.1870000000	to fuse
0.1870000000	while achieving
0.1870000000	an intermediate
0.1870000000	to manage
0.1870000000	an extremely
0.1870000000	to mimic
0.1870000000	to realize
0.1870000000	to locate
0.1870000000	to decide
0.1870000000	to satisfy
0.1870000000	to recognise
0.1870000000	to run
0.1870000000	an environment
0.1870000000	an intelligent
0.1870000000	these applications
0.1870000000	to add
0.1870000000	to bring
0.1870000000	to effectively
0.1870000000	an innovative
0.1870000000	to prevent
0.1870000000	an architecture
0.1870000000	an entire
0.1870000000	to convert
0.1870000000	to simulate
0.1870000000	an equivalent
0.1870000000	an autonomous
0.1870000000	to rank
0.1870000000	an underlying
0.1870000000	to simplify
0.1870000000	an incremental
0.1870000000	to yield
0.1870000000	to evolve
0.1870000000	to automate
0.1870000000	an external
0.1870000000	an infinite
0.1870000000	to modify
0.1870000000	to localize
0.1870000000	to reveal
0.1870000000	an original
0.1870000000	an error
0.1870000000	an extended
0.1870000000	an exponential
0.1870000000	regularization for
0.1870000000	to play
0.1870000000	these properties
0.1870000000	these operations
0.1870000000	good performance
0.1870000000	time due
0.1870000000	time dependent
0.1870000000	time steps
0.1870000000	demonstrated using
0.1870000000	good results
0.1870000000	by reducing
0.1870000000	by optimizing
0.1870000000	task as
0.1870000000	by performing
0.1870000000	by modeling
0.1870000000	by allowing
0.1870000000	by developing
0.1870000000	by formulating
0.1870000000	further improve
0.1870000000	also prove
0.1870000000	by presenting
0.1870000000	by taking
0.1870000000	by maximizing
0.1870000000	reason for
0.1870000000	at hand
0.1870000000	also compare
0.1870000000	also presented
0.1870000000	by solving
0.1870000000	at http
0.1870000000	also discussed
0.1870000000	normal and
0.1870000000	non smooth
0.1870000000	and activation
0.1870000000	and illustrate
0.1870000000	and achieves
0.1870000000	and obtain
0.1870000000	and test
0.1870000000	and accurate
0.1870000000	and learn
0.1870000000	with limited
0.1870000000	with large
0.1870000000	and perform
0.1870000000	and computational
0.1870000000	and achieve
0.1870000000	and applications
0.1870000000	and deletion
0.1870000000	and flexible
0.1870000000	and robust
0.1870000000	and efficient
0.1870000000	and develop
0.1870000000	and classification
0.1870000000	and finally
0.1870000000	extend to
0.1870000000	a huge
0.1870000000	a desired
0.1870000000	in isolation
0.1870000000	aid in
0.1870000000	a means
0.1870000000	a population
0.1870000000	a quantitative
0.1870000000	a separate
0.1870000000	a modular
0.1870000000	a conditional
0.1870000000	a geometric
0.1870000000	calculated from
0.1870000000	a nonparametric
0.1870000000	a heuristic
0.1870000000	a partial
0.1870000000	a mathematical
0.1870000000	a positive
0.1870000000	a rigorous
0.1870000000	a randomized
0.1870000000	a quadratic
0.1870000000	a nonlinear
0.1870000000	a conventional
0.1870000000	a basic
0.1870000000	a minimum
0.1870000000	a simulated
0.1870000000	a reference
0.1870000000	a substantial
0.1870000000	a test
0.1870000000	in parallel
0.1870000000	a synthetic
0.1870000000	a discrete
0.1870000000	a uniform
0.1870000000	a consistent
0.1870000000	a reliable
0.1870000000	a potential
0.1870000000	a short
0.1870000000	a deterministic
0.1870000000	a simpler
0.1870000000	a straightforward
0.1870000000	analysis with
0.1870000000	a classical
0.1870000000	a proper
0.1870000000	a mechanism
0.1870000000	a smooth
0.1870000000	a clear
0.1870000000	a preliminary
0.1870000000	a prior
0.1870000000	a dual
0.1870000000	0 1
0.1870000000	in videos
0.1870000000	works by
0.1870000000	a minimal
0.1870000000	participation in
0.1860000000	the visual question answering
0.1860000000	of low rank matrix
0.1860000000	the accuracy and efficiency
0.1860000000	application of machine learning
0.1860000000	a set of data
0.1860000000	the problem of estimating
0.1860000000	the problem of visual
0.1860000000	the problem of finding
0.1860000000	for deep neural network
0.1860000000	in automatic speech recognition
0.1860000000	of hand crafted features
0.1860000000	the proposed algorithm achieves
0.1860000000	of conditional random fields
0.1860000000	the number of points
0.1860000000	the number of edges
0.1860000000	the number of tasks
0.1860000000	the number of labels
0.1860000000	the number of clauses
0.1860000000	for natural language processing
0.1860000000	present two new
0.1860000000	variational inference to
0.1860000000	two major challenges
0.1860000000	not restricted to
0.1860000000	used to infer
0.1860000000	of missing values
0.1860000000	able to learn
0.1860000000	used for classification
0.1860000000	used for data
0.1860000000	a novel variational
0.1860000000	aims to find
0.1860000000	for knowledge base
0.1860000000	the segmented image
0.1860000000	the lower layers
0.1860000000	structural properties of
0.1860000000	a relation extraction
0.1860000000	the article presents
0.1860000000	the light of
0.1860000000	of o sqrt
0.1860000000	in time series
0.1860000000	this work presents
0.1860000000	input such as
0.1860000000	a histogram of
0.1860000000	from first person
0.1860000000	sentiment classification of
0.1860000000	of different size
0.1860000000	does not exist
0.1860000000	of different features
0.1860000000	the pre processing
0.1860000000	and dependency parsing
0.1860000000	the unsupervised setting
0.1860000000	the discriminator network
0.1860000000	the proximal gradient
0.1860000000	regions of interest
0.1860000000	systems such as
0.1860000000	to further enhance
0.1860000000	present here
0.1860000000	improve over
0.1860000000	frames of
0.1860000000	this survey
0.1860000000	this research
0.1860000000	descriptors and
0.1860000000	that data
0.1860000000	this technique
0.1860000000	this field
0.1860000000	other fields
0.1860000000	this goal
0.1860000000	other methods
0.1860000000	this context
0.1860000000	this effect
0.1860000000	knowledge into
0.1860000000	this setting
0.1860000000	this result
0.1860000000	this question
0.1860000000	this definition
0.1860000000	labels to
0.1860000000	this case
0.1860000000	this idea
0.1860000000	this concept
0.1860000000	this process
0.1860000000	this gap
0.1860000000	this criterion
0.1860000000	this assumption
0.1860000000	this inference
0.1860000000	that feature
0.1860000000	this challenge
0.1860000000	this makes
0.1860000000	improves on
0.1860000000	new view
0.1860000000	this area
0.1860000000	this estimator
0.1860000000	this report
0.1860000000	width of
0.1860000000	tree of
0.1860000000	guarantee for
0.1860000000	lies on
0.1860000000	drawbacks of
0.1860000000	prior on
0.1860000000	2 and
0.1860000000	novel techniques
0.1860000000	best policy
0.1860000000	processes in
0.1860000000	performance against
0.1860000000	outcomes of
0.1860000000	first case
0.1860000000	significantly different
0.1860000000	three challenging
0.1860000000	several years
0.1860000000	prediction for
0.1860000000	as variational
0.1860000000	as input
0.1860000000	compare different
0.1860000000	framework on
0.1860000000	experimentally show
0.1860000000	discretization of
0.1860000000	3d deep
0.1860000000	popularity of
0.1860000000	mentioned in
0.1860000000	coefficient of
0.1860000000	k dimensional
0.1860000000	so called
0.1860000000	on line
0.1860000000	on average
0.1860000000	product of
0.1860000000	for improving
0.1860000000	for conversational
0.1860000000	for unlabeled
0.1860000000	control system
0.1860000000	from data
0.1860000000	from multiple
0.1860000000	for generating
0.1860000000	for computing
0.1860000000	for evaluating
0.1860000000	for estimating
0.1860000000	for modeling
0.1860000000	for extracting
0.1860000000	for representing
0.1860000000	on compression
0.1860000000	for efficient
0.1860000000	from twitter
0.1860000000	for constructing
0.1860000000	for kernel
0.1860000000	for modelling
0.1860000000	for identifying
0.1860000000	for convolutional
0.1860000000	for classifying
0.1860000000	for classification
0.1860000000	for automatic
0.1860000000	for dialog
0.1860000000	for analyzing
0.1860000000	for predicting
0.1860000000	for detecting
0.1860000000	for finding
0.1860000000	regularities in
0.1860000000	for building
0.1860000000	many words
0.1860000000	on closed
0.1860000000	for training
0.1860000000	each individual
0.1860000000	each image
0.1860000000	each node
0.1860000000	requirements and
0.1860000000	correlations in
0.1860000000	trend in
0.1860000000	near perfect
0.1860000000	the sat
0.1860000000	the authors
0.1860000000	approximations for
0.1860000000	near separable
0.1860000000	the lagrangian
0.1860000000	the past
0.1860000000	the backtracking
0.1860000000	the groups
0.1860000000	the recent
0.1860000000	extracted and
0.1860000000	the observation
0.1860000000	the scheduling
0.1860000000	the fundamental
0.1860000000	the media
0.1860000000	the predictors
0.1860000000	the between
0.1860000000	some experiments
0.1860000000	the multiscale
0.1860000000	the smoothing
0.1860000000	the years
0.1860000000	the challenging
0.1860000000	the various
0.1860000000	the categorization
0.1860000000	the predicted
0.1860000000	the matrices
0.1860000000	the correct
0.1860000000	the profile
0.1860000000	the vertical
0.1860000000	the practical
0.1860000000	the relevant
0.1860000000	the remaining
0.1860000000	the conventional
0.1860000000	the future
0.1860000000	despite significant
0.1860000000	the assumption
0.1860000000	the known
0.1860000000	the possible
0.1860000000	the characters
0.1860000000	the snr
0.1860000000	the payoff
0.1860000000	the taxonomy
0.1860000000	the module
0.1860000000	the desired
0.1860000000	the internet
0.1860000000	the perturbation
0.1860000000	technique with
0.1860000000	not required
0.1860000000	the opinion
0.1860000000	the square
0.1860000000	the portfolio
0.1860000000	the ctc
0.1860000000	the exact
0.1860000000	the required
0.1860000000	the aforementioned
0.1860000000	the complete
0.1860000000	the bic
0.1860000000	the classic
0.1860000000	the theoretical
0.1860000000	the primary
0.1860000000	the inherent
0.1860000000	the drug
0.1860000000	the basic
0.1860000000	the total
0.1860000000	the factor
0.1860000000	the frames
0.1860000000	the automatic
0.1860000000	the actual
0.1860000000	the major
0.1860000000	the usual
0.1860000000	the intrinsic
0.1860000000	the delta
0.1860000000	process with
0.1860000000	emerge from
0.1860000000	the bow
0.1860000000	the fractional
0.1860000000	the popular
0.1860000000	the coupled
0.1860000000	accessible to
0.1860000000	shortcoming of
0.1860000000	strategy and
0.1860000000	make predictions
0.1860000000	long time
0.1860000000	detected by
0.1860000000	such models
0.1860000000	context by
0.1860000000	such perturbations
0.1860000000	databases of
0.1860000000	more difficult
0.1860000000	of trajectories
0.1860000000	of soft
0.1860000000	of faces
0.1860000000	of phoneme
0.1860000000	appears in
0.1860000000	of safety
0.1860000000	learn about
0.1860000000	i provide
0.1860000000	means and
0.1860000000	of existing
0.1860000000	of feedback
0.1860000000	of occlusion
0.1860000000	of hmms
0.1860000000	propose novel
0.1860000000	of non
0.1860000000	of rl
0.1860000000	of truth
0.1860000000	of gender
0.1860000000	of evaluating
0.1860000000	of translation
0.1860000000	of support
0.1860000000	of dual
0.1860000000	there exist
0.1860000000	of individual
0.1860000000	of tracking
0.1860000000	of differences
0.1860000000	of calibration
0.1860000000	of nuclear
0.1860000000	of multiple
0.1860000000	of fetal
0.1860000000	of reduction
0.1860000000	of autoencoders
0.1860000000	of verbal
0.1860000000	of health
0.1860000000	of complex
0.1860000000	of ising
0.1860000000	studied and
0.1860000000	of liver
0.1860000000	more general
0.1860000000	bound as
0.1860000000	edge and
0.1860000000	biology and
0.1860000000	an interactive
0.1860000000	an offline
0.1860000000	these challenges
0.1860000000	distance from
0.1860000000	composed by
0.1860000000	an artificial
0.1860000000	to leverage
0.1860000000	population of
0.1860000000	repository of
0.1860000000	attacks on
0.1860000000	to establish
0.1860000000	to quantify
0.1860000000	challenge of
0.1860000000	an ordered
0.1860000000	to test
0.1860000000	these algorithms
0.1860000000	to combine
0.1860000000	to demonstrate
0.1860000000	to remove
0.1860000000	to illustrate
0.1860000000	to track
0.1860000000	to define
0.1860000000	adaptation to
0.1860000000	these results
0.1860000000	an integrated
0.1860000000	to assign
0.1860000000	to measure
0.1860000000	an explicit
0.1860000000	an individual
0.1860000000	to validate
0.1860000000	to adapt
0.1860000000	an approximate
0.1860000000	to map
0.1860000000	an asymptotic
0.1860000000	to explain
0.1860000000	to synthesize
0.1860000000	to design
0.1860000000	to explore
0.1860000000	an importance
0.1860000000	to enable
0.1860000000	to analyze
0.1860000000	to apply
0.1860000000	to efficiently
0.1860000000	to automatically
0.1860000000	to compare
0.1860000000	to preserve
0.1860000000	to segment
0.1860000000	to answer
0.1860000000	to implement
0.1860000000	to investigate
0.1860000000	to characterize
0.1860000000	to convex
0.1860000000	to encode
0.1860000000	to verify
0.1860000000	to exploit
0.1860000000	to bridge
0.1860000000	to form
0.1860000000	to match
0.1860000000	to express
0.1860000000	to unseen
0.1860000000	an intuitive
0.1860000000	an accurate
0.1860000000	to recognition
0.1860000000	an active
0.1860000000	an automatic
0.1860000000	an interesting
0.1860000000	to approximate
0.1860000000	to boost
0.1860000000	to collect
0.1860000000	an emotion
0.1860000000	to maintain
0.1860000000	to utilize
0.1860000000	data or
0.1860000000	to systems
0.1860000000	to choose
0.1860000000	an attempt
0.1860000000	to teach
0.1860000000	to control
0.1860000000	to derive
0.1860000000	to social
0.1860000000	to render
0.1860000000	an adversarial
0.1860000000	behaviors in
0.1860000000	to seek
0.1860000000	to network
0.1860000000	to interpret
0.1860000000	while minimizing
0.1860000000	an automated
0.1860000000	to support
0.1860000000	assignment of
0.1860000000	an existing
0.1860000000	an essential
0.1860000000	to extend
0.1860000000	to encourage
0.1860000000	an exact
0.1860000000	an input
0.1860000000	to generalize
0.1860000000	to study
0.1860000000	to reach
0.1860000000	adopted for
0.1860000000	presented with
0.1860000000	these approaches
0.1860000000	these techniques
0.1860000000	these tasks
0.1860000000	these limitations
0.1860000000	induction of
0.1860000000	aiming to
0.1860000000	bags of
0.1860000000	detector to
0.1860000000	safety and
0.1860000000	brief description
0.1860000000	beneficial to
0.1860000000	various tasks
0.1860000000	capacity and
0.1860000000	by integrating
0.1860000000	by learning
0.1860000000	by training
0.1860000000	space using
0.1860000000	also demonstrate
0.1860000000	outputs of
0.1860000000	by employing
0.1860000000	by utilizing
0.1860000000	by minimizing
0.1860000000	by showing
0.1860000000	also introduce
0.1860000000	by providing
0.1860000000	also propose
0.1860000000	also discuss
0.1860000000	also present
0.1860000000	approach by
0.1860000000	values from
0.1860000000	also provide
0.1860000000	gan with
0.1860000000	predictions on
0.1860000000	non task
0.1860000000	non compositional
0.1860000000	and transportation
0.1860000000	and female
0.1860000000	and convex
0.1860000000	across multiple
0.1860000000	and interpret
0.1860000000	and improve
0.1860000000	and prove
0.1860000000	and l1
0.1860000000	and convergence
0.1860000000	and discuss
0.1860000000	and evaluate
0.1860000000	and derive
0.1860000000	and propose
0.1860000000	with users
0.1860000000	and loop
0.1860000000	with minimal
0.1860000000	with multiple
0.1860000000	and enables
0.1860000000	sequential data
0.1860000000	and highly
0.1860000000	and iii
0.1860000000	and provide
0.1860000000	and analyze
0.1860000000	and present
0.1860000000	and apply
0.1860000000	and 3
0.1860000000	and ii
0.1860000000	and compare
0.1860000000	activity in
0.1860000000	a systematic
0.1860000000	a critical
0.1860000000	a baseline
0.1860000000	a binary
0.1860000000	a limited
0.1860000000	a larger
0.1860000000	a hierarchical
0.1860000000	a technique
0.1860000000	a detailed
0.1860000000	a fundamental
0.1860000000	a unique
0.1860000000	significance of
0.1860000000	a popular
0.1860000000	awareness of
0.1860000000	a highly
0.1860000000	a global
0.1860000000	a reasonable
0.1860000000	1 knapsack
0.1860000000	in turn
0.1860000000	a continuous
0.1860000000	a smaller
0.1860000000	a reservoir
0.1860000000	scenarios and
0.1860000000	a viewpoint
0.1860000000	a shared
0.1860000000	a dl
0.1860000000	a typical
0.1860000000	a recurrent
0.1860000000	a compact
0.1860000000	without changing
0.1860000000	a methodology
0.1860000000	a probabilistic
0.1860000000	function with
0.1860000000	a supervised
0.1860000000	a discriminative
0.1860000000	in offline
0.1860000000	a random
0.1860000000	a crucial
0.1860000000	a great
0.1860000000	a variational
0.1860000000	a complex
0.1860000000	a myriad
0.1860000000	a scalable
0.1860000000	5 fold
0.1860000000	a recent
0.1860000000	a generalized
0.1860000000	a dynamic
0.1860000000	a complete
0.1860000000	a powerful
0.1860000000	a suitable
0.1860000000	0 and
0.1860000000	a promising
0.1860000000	a higher
0.1860000000	a texture
0.1860000000	in sequence
0.1860000000	a strong
0.1860000000	a statistical
0.1860000000	function given
0.1860000000	a hybrid
0.1860000000	a central
0.1860000000	a task
0.1860000000	in label
0.1860000000	a person
0.1860000000	a scene
0.1860000000	a flexible
0.1860000000	a finite
0.1860000000	a challenge
0.1860000000	a theoretical
0.1860000000	a classifier
0.1860000000	a comprehensive
0.1860000000	a benchmark
0.1860000000	a weighted
0.1860000000	a formal
0.1860000000	a rich
0.1860000000	a modified
0.1860000000	a key
0.1860000000	a joint
0.1860000000	a similar
0.1860000000	a cell
0.1860000000	a direct
0.1860000000	a universal
0.1860000000	a generic
0.1860000000	a database
0.1860000000	a greedy
0.1860000000	a parallel
0.1860000000	without increasing
0.1860000000	bandits with
0.1860000000	d dimensions
0.1860000000	texture and
0.1860000000	texts in
0.1860000000	a practical
0.1860000000	a fixed
0.1860000000	summary of
0.1860000000	a constant
0.1860000000	in knowledge
0.1860000000	a decoder
0.1860000000	library for
0.1860000000	colony system
0.1850000000	end to end network
0.1850000000	the riemannian manifold of
0.1850000000	the main features of
0.1850000000	a set of objects
0.1850000000	a training set of
0.1850000000	of principal component analysis
0.1850000000	the performance of stochastic
0.1850000000	the use of genetic
0.1850000000	the second type of
0.1850000000	convergence speed of
0.1850000000	part based models
0.1850000000	the spread of
0.1850000000	learning algorithm for
0.1850000000	2 1 norm
0.1850000000	algorithms for inference
0.1850000000	used for feature
0.1850000000	the time horizon
0.1850000000	for self driving
0.1850000000	prior knowledge on
0.1850000000	number of units
0.1850000000	types of information
0.1850000000	a new object
0.1850000000	and l 2
0.1850000000	the management of
0.1850000000	sequence of frames
0.1850000000	of 3d objects
0.1850000000	for model learning
0.1850000000	a regret of
0.1850000000	of scientific papers
0.1850000000	and texture information
0.1850000000	the baseline model
0.1850000000	the features learned
0.1850000000	a kernel based
0.1850000000	different lighting conditions
0.1850000000	quality of machine
0.1850000000	to use deep
0.1850000000	of ell 1
0.1850000000	this tutorial
0.1850000000	this layer
0.1850000000	still images
0.1850000000	domains with
0.1850000000	both english
0.1850000000	this framework
0.1850000000	this method
0.1850000000	this regularization
0.1850000000	this platform
0.1850000000	this agent
0.1850000000	this loss
0.1850000000	that state
0.1850000000	this extension
0.1850000000	image but
0.1850000000	yet effective
0.1850000000	novel approaches
0.1850000000	as human
0.1850000000	p p
0.1850000000	different research
0.1850000000	particular case
0.1850000000	different graph
0.1850000000	as optimization
0.1850000000	as network
0.1850000000	as hidden
0.1850000000	two words
0.1850000000	particular types
0.1850000000	many visual
0.1850000000	for cardiac
0.1850000000	on salient
0.1850000000	for iris
0.1850000000	many classes
0.1850000000	for problems
0.1850000000	each partition
0.1850000000	for network
0.1850000000	for solving
0.1850000000	for short
0.1850000000	the longer
0.1850000000	near optimally
0.1850000000	discuss several
0.1850000000	certain circumstances
0.1850000000	the invariant
0.1850000000	the key
0.1850000000	the maps
0.1850000000	the logics
0.1850000000	the warping
0.1850000000	the decay
0.1850000000	the sky
0.1850000000	the peak
0.1850000000	the excellent
0.1850000000	the processes
0.1850000000	the materials
0.1850000000	the chi
0.1850000000	the focused
0.1850000000	the alternatives
0.1850000000	the equations
0.1850000000	the true
0.1850000000	the students
0.1850000000	the traditional
0.1850000000	the ubuntu
0.1850000000	the perceptron
0.1850000000	the conjugate
0.1850000000	the trial
0.1850000000	the perceived
0.1850000000	the dl
0.1850000000	the lda
0.1850000000	the operating
0.1850000000	the classical
0.1850000000	the parsing
0.1850000000	the intended
0.1850000000	the verb
0.1850000000	the russian
0.1850000000	using convolutional
0.1850000000	using image
0.1850000000	using multi
0.1850000000	using 3d
0.1850000000	of gan
0.1850000000	of correlation
0.1850000000	of lstm
0.1850000000	of policy
0.1850000000	of popular
0.1850000000	of averaging
0.1850000000	of voice
0.1850000000	of sarcasm
0.1850000000	of symbol
0.1850000000	of modularity
0.1850000000	of confidence
0.1850000000	of pca
0.1850000000	of signature
0.1850000000	of relu
0.1850000000	of microarray
0.1850000000	of satellite
0.1850000000	of compositional
0.1850000000	of lda
0.1850000000	of pedestrian
0.1850000000	of pairs
0.1850000000	of number
0.1850000000	of engineering
0.1850000000	of ranking
0.1850000000	of phase
0.1850000000	of rnn
0.1850000000	of asr
0.1850000000	of security
0.1850000000	adhere to
0.1850000000	to resource
0.1850000000	these words
0.1850000000	an unlabeled
0.1850000000	these models
0.1850000000	to environmental
0.1850000000	to open
0.1850000000	to provide
0.1850000000	to cognitive
0.1850000000	to develop
0.1850000000	to distribution
0.1850000000	an incomplete
0.1850000000	to nodes
0.1850000000	these problems
0.1850000000	mean estimation
0.1850000000	by establishing
0.1850000000	good solutions
0.1850000000	further development
0.1850000000	better classification
0.1850000000	and cloud
0.1850000000	non homogeneous
0.1850000000	non projective
0.1850000000	and structure
0.1850000000	and mirror
0.1850000000	and gradient
0.1850000000	and graphical
0.1850000000	and 2
0.1850000000	and demonstrate
0.1850000000	with significantly
0.1850000000	and accuracy
0.1850000000	and compute
0.1850000000	and intelligence
0.1850000000	and systems
0.1850000000	with prior
0.1850000000	and beta
0.1850000000	a risk
0.1850000000	divergences and
0.1850000000	a symbolic
0.1850000000	a fast
0.1850000000	a method
0.1850000000	a linear
0.1850000000	a disease
0.1850000000	a strict
0.1850000000	a significant
0.1850000000	a transform
0.1850000000	in expectation
0.1850000000	a base
0.1850000000	in background
0.1850000000	a robust
0.1850000000	a natural
0.1850000000	in domains
0.1850000000	in wikipedia
0.1850000000	a proximal
0.1850000000	in recognition
0.1850000000	a specific
0.1850000000	in general
0.1850000000	a desirable
0.1850000000	in rule
0.1850000000	in sat
0.1850000000	a loop
0.1850000000	d vector
0.1850000000	in hindsight
0.1850000000	a standard
0.1850000000	in clustering
0.1850000000	a balanced
0.1850000000	in recurrent
0.1840000000	deep learning algorithms to
0.1840000000	the performance of algorithms
0.1840000000	a novel deep network
0.1840000000	a bayesian method for
0.1840000000	network for image classification
0.1840000000	the number of steps
0.1840000000	the main focus of
0.1840000000	the temporal evolution of
0.1840000000	under various conditions
0.1840000000	the example of
0.1840000000	one iteration of
0.1840000000	data augmentation for
0.1840000000	problems in image
0.1840000000	learning algorithm with
0.1840000000	this paper extends
0.1840000000	the elements of
0.1840000000	the first large
0.1840000000	a bayesian nonparametric
0.1840000000	the existing algorithm
0.1840000000	problem of detecting
0.1840000000	a novel attention
0.1840000000	the activation functions
0.1840000000	based methods and
0.1840000000	number of methods
0.1840000000	a high probability
0.1840000000	on time series
0.1840000000	a new task
0.1840000000	image classification to
0.1840000000	an automated method
0.1840000000	the weight of
0.1840000000	model for natural
0.1840000000	a decomposition of
0.1840000000	reinforcement learning with
0.1840000000	of such models
0.1840000000	the two approaches
0.1840000000	the prevalence of
0.1840000000	patterns such as
0.1840000000	a semi automated
0.1840000000	sets of features
0.1840000000	clustering based on
0.1840000000	to end using
0.1840000000	dimension reduction for
0.1840000000	minimal changes to
0.1840000000	memory and computational
0.1840000000	the synthesis of
0.1840000000	out of domain
0.1840000000	one data
0.1840000000	one pass
0.1840000000	instructions and
0.1840000000	one bit
0.1840000000	new rules
0.1840000000	probabilities in
0.1840000000	three popular
0.1840000000	s behavior
0.1840000000	s disease
0.1840000000	three aspects
0.1840000000	first level
0.1840000000	as motion
0.1840000000	as model
0.1840000000	two aspects
0.1840000000	s log
0.1840000000	on maximum
0.1840000000	many approaches
0.1840000000	for registration
0.1840000000	for legal
0.1840000000	from specific
0.1840000000	each cell
0.1840000000	on more
0.1840000000	on word
0.1840000000	for hardware
0.1840000000	for compressed
0.1840000000	for eye
0.1840000000	modern day
0.1840000000	the participants
0.1840000000	the rotation
0.1840000000	the passage
0.1840000000	the contrastive
0.1840000000	the mask
0.1840000000	the zipf
0.1840000000	the forecast
0.1840000000	most approaches
0.1840000000	the trees
0.1840000000	the anchor
0.1840000000	the blurring
0.1840000000	the pairs
0.1840000000	the regularized
0.1840000000	the scenes
0.1840000000	the client
0.1840000000	the sensors
0.1840000000	the distortion
0.1840000000	the vast
0.1840000000	the surrounding
0.1840000000	the signs
0.1840000000	c 0
0.1840000000	the international
0.1840000000	the gram
0.1840000000	the infinite
0.1840000000	the tagger
0.1840000000	the queries
0.1840000000	the smoothed
0.1840000000	the speckle
0.1840000000	through simulations
0.1840000000	of synonyms
0.1840000000	of points
0.1840000000	of more
0.1840000000	of additional
0.1840000000	of comparisons
0.1840000000	stronger than
0.1840000000	of stock
0.1840000000	of wireless
0.1840000000	of predicate
0.1840000000	of analysis
0.1840000000	of tag
0.1840000000	of bounds
0.1840000000	of heart
0.1840000000	of curves
0.1840000000	of transfer
0.1840000000	of functional
0.1840000000	very sparse
0.1840000000	of ct
0.1840000000	of convolution
0.1840000000	of computers
0.1840000000	of confounding
0.1840000000	of riemannian
0.1840000000	of conversational
0.1840000000	of sentence
0.1840000000	of mutation
0.1840000000	of nk
0.1840000000	of total
0.1840000000	of ultrasound
0.1840000000	of targets
0.1840000000	of weak
0.1840000000	of weighted
0.1840000000	checking whether
0.1840000000	own right
0.1840000000	often overlooked
0.1840000000	to distribute
0.1840000000	these games
0.1840000000	these structures
0.1840000000	to access
0.1840000000	to virtual
0.1840000000	to anticipate
0.1840000000	to vector
0.1840000000	to discrete
0.1840000000	an order
0.1840000000	to normalize
0.1840000000	to act
0.1840000000	to rotation
0.1840000000	to visual
0.1840000000	value imputation
0.1840000000	these latent
0.1840000000	these distributions
0.1840000000	these attributes
0.1840000000	these notions
0.1840000000	stories and
0.1840000000	by varying
0.1840000000	character as
0.1840000000	by step
0.1840000000	by pixel
0.1840000000	dataset to
0.1840000000	between visual
0.1840000000	by augmenting
0.1840000000	maker s
0.1840000000	and negative
0.1840000000	and principal
0.1840000000	and analyse
0.1840000000	and functional
0.1840000000	and interpretable
0.1840000000	with minimum
0.1840000000	with random
0.1840000000	and outputs
0.1840000000	and understanding
0.1840000000	and video
0.1840000000	and probabilistic
0.1840000000	n 4
0.1840000000	and reduces
0.1840000000	error on
0.1840000000	a filter
0.1840000000	or class
0.1840000000	a multiple
0.1840000000	a projection
0.1840000000	texts for
0.1840000000	a disparity
0.1840000000	a possibly
0.1840000000	a gpu
0.1840000000	in financial
0.1840000000	a symmetric
0.1840000000	a greater
0.1840000000	a modern
0.1840000000	or to
0.1830000000	for gaussian process regression
0.1830000000	a semi supervised approach
0.1830000000	the kl divergence between
0.1830000000	the art models in
0.1830000000	a neural network architecture
0.1830000000	for nonnegative matrix factorization
0.1830000000	the joint probability of
0.1830000000	the upper bound of
0.1830000000	cost function and
0.1830000000	distributed training of
0.1830000000	used to measure
0.1830000000	data points to
0.1830000000	body parts and
0.1830000000	data distribution and
0.1830000000	as machine learning
0.1830000000	and qualitative results
0.1830000000	rgb d sensors
0.1830000000	object tracking and
0.1830000000	pose estimation on
0.1830000000	from source to
0.1830000000	generative modeling of
0.1830000000	the relationship of
0.1830000000	stable models of
0.1830000000	images belonging to
0.1830000000	a very simple
0.1830000000	a very important
0.1830000000	classification methods for
0.1830000000	more data efficient
0.1830000000	to new tasks
0.1830000000	to end trainable
0.1830000000	to end solution
0.1830000000	the inputs of
0.1830000000	still challenging
0.1830000000	this approximation
0.1830000000	intractability of
0.1830000000	different sizes
0.1830000000	2 d
0.1830000000	several hundred
0.1830000000	several baselines
0.1830000000	two problems
0.1830000000	harder than
0.1830000000	node in
0.1830000000	p r
0.1830000000	effectiveness on
0.1830000000	each modality
0.1830000000	unknown and
0.1830000000	commands to
0.1830000000	each superpixel
0.1830000000	for matching
0.1830000000	many methods
0.1830000000	the utterances
0.1830000000	warning system
0.1830000000	causality and
0.1830000000	regularizer to
0.1830000000	the constructed
0.1830000000	the highly
0.1830000000	the corrupted
0.1830000000	the poisson
0.1830000000	the differential
0.1830000000	relationship with
0.1830000000	operations in
0.1830000000	series and
0.1830000000	using object
0.1830000000	lambda with
0.1830000000	of 10
0.1830000000	almost always
0.1830000000	of selected
0.1830000000	of algorithmic
0.1830000000	of pooling
0.1830000000	of gamma
0.1830000000	of assigning
0.1830000000	of capacity
0.1830000000	script and
0.1830000000	these areas
0.1830000000	an ilp
0.1830000000	criticality in
0.1830000000	an estimated
0.1830000000	to manual
0.1830000000	an adequate
0.1830000000	time period
0.1830000000	dataset contains
0.1830000000	by restricting
0.1830000000	projected into
0.1830000000	divergence between
0.1830000000	with strong
0.1830000000	and reasoning
0.1830000000	non elitist
0.1830000000	non standard
0.1830000000	patches from
0.1830000000	well formed
0.1830000000	and experimental
0.1830000000	and exploit
0.1830000000	rank and
0.1830000000	divergences between
0.1830000000	a correct
0.1830000000	without explicit
0.1830000000	function g
0.1830000000	in computer
0.1820000000	the strengths and weaknesses of
0.1820000000	this problem based on
0.1820000000	the level of individual
0.1820000000	expressed in terms of
0.1820000000	the task of object
0.1820000000	the second level
0.1820000000	the pattern of
0.1820000000	markov model for
0.1820000000	attention models for
0.1820000000	optimization algorithms and
0.1820000000	local features for
0.1820000000	learning method and
0.1820000000	the 3d reconstruction
0.1820000000	the kernel density
0.1820000000	prediction task and
0.1820000000	network structure for
0.1820000000	deep features for
0.1820000000	use of data
0.1820000000	pose estimation for
0.1820000000	the composition of
0.1820000000	for mobile devices
0.1820000000	face recognition using
0.1820000000	output layer of
0.1820000000	learning models in
0.1820000000	nuclear norm and
0.1820000000	error rates for
0.1820000000	language modeling for
0.1820000000	latent variables and
0.1820000000	and local features
0.1820000000	learning algorithms as
0.1820000000	for language identification
0.1820000000	deep learning to
0.1820000000	detection methods on
0.1820000000	class classification and
0.1820000000	of two types
0.1820000000	training data with
0.1820000000	between time series
0.1820000000	the measurement matrix
0.1820000000	the two stage
0.1820000000	task learning with
0.1820000000	a method of
0.1820000000	network trained on
0.1820000000	greedy algorithm for
0.1820000000	image representations and
0.1820000000	the paper introduces
0.1820000000	for belief revision
0.1820000000	network model with
0.1820000000	action recognition with
0.1820000000	of cellular automata
0.1820000000	previous methods for
0.1820000000	probabilistic models in
0.1820000000	action recognition from
0.1820000000	accurate segmentation of
0.1820000000	methods aim to
0.1820000000	other popular
0.1820000000	recognition with
0.1820000000	other nodes
0.1820000000	other existing
0.1820000000	new information
0.1820000000	this similarity
0.1820000000	this paradigm
0.1820000000	this latent
0.1820000000	present three
0.1820000000	new challenges
0.1820000000	challenging since
0.1820000000	then demonstrate
0.1820000000	help improve
0.1820000000	novel graph
0.1820000000	performance across
0.1820000000	several key
0.1820000000	probabilities for
0.1820000000	two convex
0.1820000000	two domains
0.1820000000	sequence and
0.1820000000	2 dimensional
0.1820000000	impossible to
0.1820000000	mathematics of
0.1820000000	than previously
0.1820000000	limits of
0.1820000000	down sampling
0.1820000000	wearable computer
0.1820000000	for argumentation
0.1820000000	each subspace
0.1820000000	resources for
0.1820000000	quantities of
0.1820000000	for default
0.1820000000	for processing
0.1820000000	for deriving
0.1820000000	on networks
0.1820000000	for texture
0.1820000000	from numerical
0.1820000000	2d image
0.1820000000	the star
0.1820000000	the second
0.1820000000	the operators
0.1820000000	setting in
0.1820000000	the logarithmic
0.1820000000	the subjective
0.1820000000	the strategic
0.1820000000	the ranked
0.1820000000	the skip
0.1820000000	the heat
0.1820000000	the satellite
0.1820000000	the blocks
0.1820000000	the cells
0.1820000000	the rates
0.1820000000	the survey
0.1820000000	investigation into
0.1820000000	the switch
0.1820000000	physics and
0.1820000000	the tournament
0.1820000000	the scenario
0.1820000000	the radial
0.1820000000	looked at
0.1820000000	information as
0.1820000000	principle for
0.1820000000	impractical for
0.1820000000	attempting to
0.1820000000	copies of
0.1820000000	of incorporating
0.1820000000	method against
0.1820000000	semantic part
0.1820000000	computer interfaces
0.1820000000	ideas behind
0.1820000000	importance to
0.1820000000	of paths
0.1820000000	of cluster
0.1820000000	literature and
0.1820000000	more diverse
0.1820000000	more broadly
0.1820000000	of approximately
0.1820000000	of relational
0.1820000000	of beta
0.1820000000	of dcnns
0.1820000000	of topic
0.1820000000	of humans
0.1820000000	of art
0.1820000000	of characters
0.1820000000	of construction
0.1820000000	of subspace
0.1820000000	very slow
0.1820000000	of elementary
0.1820000000	of ontologies
0.1820000000	of sets
0.1820000000	of translations
0.1820000000	of strings
0.1820000000	of source
0.1820000000	topic in
0.1820000000	of frame
0.1820000000	effective at
0.1820000000	of compressive
0.1820000000	these studies
0.1820000000	transformations between
0.1820000000	data but
0.1820000000	an alpha
0.1820000000	words or
0.1820000000	response time
0.1820000000	an asynchronous
0.1820000000	to formalize
0.1820000000	to fulfill
0.1820000000	an unconstrained
0.1820000000	an unprecedented
0.1820000000	scaling and
0.1820000000	by creating
0.1820000000	by collecting
0.1820000000	by object
0.1820000000	various domains
0.1820000000	decisions in
0.1820000000	those methods
0.1820000000	with standard
0.1820000000	labeled with
0.1820000000	with lower
0.1820000000	and extends
0.1820000000	and employ
0.1820000000	security and
0.1820000000	and margin
0.1820000000	and build
0.1820000000	with words
0.1820000000	and query
0.1820000000	and tags
0.1820000000	a 4d
0.1820000000	a multiscale
0.1820000000	initialized with
0.1820000000	agree with
0.1820000000	a rational
0.1820000000	a potentially
0.1820000000	in texture
0.1820000000	in combinatorial
0.1820000000	a pairwise
0.1820000000	in simulation
0.1820000000	a structural
0.1820000000	in future
0.1820000000	in recognizing
0.1820000000	in ultrasound
0.1820000000	a pure
0.1820000000	a tighter
0.1820000000	starts from
0.1820000000	appeared in
0.1810000000	a set of high
0.1810000000	the problem of clustering
0.1810000000	in terms of f1
0.1810000000	such as classification and
0.1810000000	in time series data
0.1810000000	the automatic detection of
0.1810000000	and does not require
0.1810000000	a bag of words
0.1810000000	the same semantic
0.1810000000	the feature set
0.1810000000	the output image
0.1810000000	of graphical models
0.1810000000	aims to identify
0.1810000000	a bayesian optimization
0.1810000000	detection task and
0.1810000000	optical flow for
0.1810000000	while still achieving
0.1810000000	of knowledge representation
0.1810000000	the practicality of
0.1810000000	the target model
0.1810000000	a preliminary report
0.1810000000	a search space
0.1810000000	a new network
0.1810000000	the search tree
0.1810000000	neural networks in
0.1810000000	of feature vectors
0.1810000000	point in time
0.1810000000	morphological analysis of
0.1810000000	a target image
0.1810000000	clinical time series
0.1810000000	the real valued
0.1810000000	the subject s
0.1810000000	a single video
0.1810000000	in visual tracking
0.1810000000	for logistic regression
0.1810000000	outperforming state of
0.1810000000	of video frames
0.1810000000	with time varying
0.1810000000	to end reinforcement
0.1810000000	few thousand
0.1810000000	this drawback
0.1810000000	practical interest
0.1810000000	as target
0.1810000000	different semantics
0.1810000000	dimension n
0.1810000000	p dimensional
0.1810000000	for variance
0.1810000000	second price
0.1810000000	for sgd
0.1810000000	for facial
0.1810000000	on brain
0.1810000000	on gpus
0.1810000000	for recursive
0.1810000000	for more
0.1810000000	from convex
0.1810000000	toy example
0.1810000000	normally distributed
0.1810000000	the pos
0.1810000000	the holistic
0.1810000000	the partitioning
0.1810000000	the concave
0.1810000000	not fully
0.1810000000	the huge
0.1810000000	the truncated
0.1810000000	benchmark and
0.1810000000	such knowledge
0.1810000000	of underwater
0.1810000000	of soccer
0.1810000000	computer security
0.1810000000	of hash
0.1810000000	of transformation
0.1810000000	of defeasible
0.1810000000	of delay
0.1810000000	of content
0.1810000000	of requests
0.1810000000	of spikes
0.1810000000	of damage
0.1810000000	of cp
0.1810000000	of explanations
0.1810000000	to minimise
0.1810000000	to gaussian
0.1810000000	to graphs
0.1810000000	an owl
0.1810000000	an axiomatic
0.1810000000	to segmentation
0.1810000000	by enforcing
0.1810000000	various methods
0.1810000000	mdps and
0.1810000000	2017 challenge
0.1810000000	and geometric
0.1810000000	and orientation
0.1810000000	with stochastic
0.1810000000	and laplacian
0.1810000000	with hidden
0.1810000000	a double
0.1810000000	a cardinality
0.1810000000	in time
0.1810000000	20 000
0.1810000000	metric to
0.1810000000	or model
0.1810000000	a submodular
0.1810000000	in process
0.1810000000	in ranking
0.1810000000	in structure
0.1810000000	probability 1
0.1810000000	forecasting of
0.1810000000	a voxel
0.1810000000	in human
0.1810000000	a stopping
0.1800000000	the number of parameters in
0.1800000000	a widely used technique
0.1800000000	the local geometry of
0.1800000000	used to select
0.1800000000	the first type
0.1800000000	opinion mining and
0.1800000000	depend only on
0.1800000000	this work addresses
0.1800000000	possible to learn
0.1800000000	a possible solution
0.1800000000	does not hold
0.1800000000	the input video
0.1800000000	the predictability of
0.1800000000	images based on
0.1800000000	for structure learning
0.1800000000	bayesian optimization with
0.1800000000	graphical models for
0.1800000000	this feature
0.1800000000	qualitatively different
0.1800000000	past work
0.1800000000	this success
0.1800000000	matrices in
0.1800000000	new possibilities
0.1800000000	other areas
0.1800000000	expressive enough
0.1800000000	this includes
0.1800000000	this respect
0.1800000000	new insights
0.1800000000	frames by
0.1800000000	boundary of
0.1800000000	much research
0.1800000000	logarithmic in
0.1800000000	pool of
0.1800000000	less accurate
0.1800000000	three distinct
0.1800000000	different algorithms
0.1800000000	two layer
0.1800000000	two images
0.1800000000	set with
0.1800000000	trick to
0.1800000000	from wikipedia
0.1800000000	grades of
0.1800000000	each observation
0.1800000000	for multimodal
0.1800000000	for reconstructing
0.1800000000	the frontal
0.1800000000	the firing
0.1800000000	most relevant
0.1800000000	the broad
0.1800000000	the generic
0.1800000000	the earlier
0.1800000000	the spherical
0.1800000000	logics for
0.1800000000	lexical and
0.1800000000	of minimizing
0.1800000000	of performing
0.1800000000	decompositions of
0.1800000000	of graded
0.1800000000	of g
0.1800000000	of pairwise
0.1800000000	of developing
0.1800000000	tension between
0.1800000000	of constraint
0.1800000000	of clauses
0.1800000000	of strong
0.1800000000	very general
0.1800000000	words by
0.1800000000	to convey
0.1800000000	an intriguing
0.1800000000	an actual
0.1800000000	to judge
0.1800000000	to relax
0.1800000000	formation of
0.1800000000	penalized least
0.1800000000	also outperforms
0.1800000000	by sharing
0.1800000000	by building
0.1800000000	tumor and
0.1800000000	various techniques
0.1800000000	unlike many
0.1800000000	non empty
0.1800000000	and incorporate
0.1800000000	and adapt
0.1800000000	and accurately
0.1800000000	and future
0.1800000000	and empirical
0.1800000000	and combine
0.1800000000	with explicit
0.1800000000	attribute value
0.1800000000	document in
0.1800000000	update of
0.1800000000	a goal
0.1800000000	in protein
0.1800000000	a free
0.1800000000	a quick
0.1800000000	a phenomenon
0.1800000000	a sharp
0.1800000000	without introducing
0.1790000000	an important component of
0.1790000000	the artificial neural network
0.1790000000	multi armed bandits with
0.1790000000	the theoretical analysis of
0.1790000000	computer vision and robotics
0.1790000000	and real world images
0.1790000000	a detailed description of
0.1790000000	over other state of
0.1790000000	the features extracted from
0.1790000000	the challenging problem of
0.1790000000	the log likelihood of
0.1790000000	the running time of
0.1790000000	the number of output
0.1790000000	clustering algorithm and
0.1790000000	used to test
0.1790000000	cost function with
0.1790000000	the members of
0.1790000000	the invariance of
0.1790000000	used to illustrate
0.1790000000	robust estimation of
0.1790000000	able to obtain
0.1790000000	able to perform
0.1790000000	algorithms for matrix
0.1790000000	images acquired by
0.1790000000	local geometry of
0.1790000000	for tensor decomposition
0.1790000000	approximation algorithm for
0.1790000000	bottom up saliency
0.1790000000	strongly convex and
0.1790000000	boltzmann machine with
0.1790000000	the formulation of
0.1790000000	learning models and
0.1790000000	the most interesting
0.1790000000	variable selection for
0.1790000000	of power law
0.1790000000	case of non
0.1790000000	parameter tuning and
0.1790000000	possible to train
0.1790000000	a link between
0.1790000000	the decisions of
0.1790000000	on and off
0.1790000000	a 2d image
0.1790000000	recognition of facial
0.1790000000	evidential reasoning in
0.1790000000	random fields for
0.1790000000	a single gpu
0.1790000000	optimal solutions of
0.1790000000	existing approaches in
0.1790000000	neural network to
0.1790000000	substantial gains in
0.1790000000	the best result
0.1790000000	the adoption of
0.1790000000	the graph based
0.1790000000	the art 3d
0.1790000000	relatively low
0.1790000000	then derive
0.1790000000	this aim
0.1790000000	new techniques
0.1790000000	this application
0.1790000000	processing computer
0.1790000000	this technology
0.1790000000	knowledge as
0.1790000000	this tool
0.1790000000	samples to
0.1790000000	regression from
0.1790000000	usually requires
0.1790000000	collaboration between
0.1790000000	layers to
0.1790000000	different contexts
0.1790000000	language s
0.1790000000	different semantic
0.1790000000	different applications
0.1790000000	several recent
0.1790000000	language from
0.1790000000	3d video
0.1790000000	descriptions to
0.1790000000	for answer
0.1790000000	third order
0.1790000000	for stereo
0.1790000000	on tweets
0.1790000000	many interesting
0.1790000000	for color
0.1790000000	for quantification
0.1790000000	gradient in
0.1790000000	shown as
0.1790000000	on human
0.1790000000	for decades
0.1790000000	many popular
0.1790000000	for music
0.1790000000	for comparison
0.1790000000	modal and
0.1790000000	each sentence
0.1790000000	the nonparanormal
0.1790000000	dropout with
0.1790000000	the great
0.1790000000	the explanation
0.1790000000	planning to
0.1790000000	the stable
0.1790000000	the reverse
0.1790000000	the trust
0.1790000000	the thesis
0.1790000000	the mixing
0.1790000000	most common
0.1790000000	the storage
0.1790000000	some simple
0.1790000000	some existing
0.1790000000	the powerful
0.1790000000	map as
0.1790000000	all tasks
0.1790000000	structure by
0.1790000000	overhead for
0.1790000000	more comprehensive
0.1790000000	serving as
0.1790000000	lstm with
0.1790000000	of recent
0.1790000000	of structural
0.1790000000	effective way
0.1790000000	of generic
0.1790000000	of scene
0.1790000000	of specific
0.1790000000	very efficiently
0.1790000000	of materials
0.1790000000	of genes
0.1790000000	views for
0.1790000000	breadth first
0.1790000000	self training
0.1790000000	to stabilize
0.1790000000	to fix
0.1790000000	to fully
0.1790000000	to disentangle
0.1790000000	to traditional
0.1790000000	to robustly
0.1790000000	to successfully
0.1790000000	an unseen
0.1790000000	functions f
0.1790000000	inequalities for
0.1790000000	allows users
0.1790000000	component and
0.1790000000	t t
0.1790000000	further investigate
0.1790000000	by casting
0.1790000000	by mapping
0.1790000000	also perform
0.1790000000	leading causes
0.1790000000	by proving
0.1790000000	by investigating
0.1790000000	o big
0.1790000000	various approaches
0.1790000000	risk and
0.1790000000	regions by
0.1790000000	rules as
0.1790000000	and interpretability
0.1790000000	and localization
0.1790000000	and generalize
0.1790000000	and voltage
0.1790000000	and support
0.1790000000	and characterize
0.1790000000	and multiple
0.1790000000	and user
0.1790000000	with higher
0.1790000000	and lower
0.1790000000	and faster
0.1790000000	and enhance
0.1790000000	array of
0.1790000000	and discriminative
0.1790000000	organized in
0.1790000000	in computational
0.1790000000	under varying
0.1790000000	a trivial
0.1790000000	a formalism
0.1790000000	a dramatic
0.1790000000	a personalized
0.1790000000	a distinct
0.1790000000	a learner
0.1790000000	in literature
0.1790000000	a quasi
0.1790000000	a fusion
0.1790000000	a emph
0.1790000000	in china
0.1790000000	a refined
0.1790000000	a very
0.1790000000	a centralized
0.1790000000	a window
0.1790000000	potential and
0.1790000000	a syntactic
0.1790000000	a secondary
0.1790000000	disadvantage of
0.1780000000	a polynomial time algorithm for
0.1780000000	trained end to end with
0.1780000000	the conditional probability of
0.1780000000	for object detection in
0.1780000000	of evolutionary algorithms in
0.1780000000	a deep reinforcement learning
0.1780000000	the number of actions
0.1780000000	with side information
0.1780000000	this paper reviews
0.1780000000	3d shape retrieval
0.1780000000	computer vision algorithms
0.1780000000	computer vision systems
0.1780000000	to discriminate between
0.1780000000	to attend to
0.1780000000	self organising properties
0.1780000000	number of labeled
0.1780000000	the variety of
0.1780000000	the mechanism of
0.1780000000	the results suggest
0.1780000000	as shown in
0.1780000000	background knowledge in
0.1780000000	based on graph
0.1780000000	the list of
0.1780000000	the consistency and
0.1780000000	the objectives of
0.1780000000	low rank plus
0.1780000000	in image and
0.1780000000	learning such as
0.1780000000	deep networks with
0.1780000000	the best published
0.1780000000	behave like
0.1780000000	from human
0.1780000000	for document
0.1780000000	for optimal
0.1780000000	the title
0.1780000000	the heuristics
0.1780000000	the dnns
0.1780000000	embedding and
0.1780000000	of error
0.1780000000	h e
0.1780000000	of clutter
0.1780000000	state in
0.1780000000	truth for
0.1780000000	objects by
0.1780000000	by block
0.1780000000	vectors by
0.1780000000	non zeros
0.1780000000	and using
0.1780000000	a matching
0.1780000000	a normal
0.1770000000	the proposed method outperforms state of
0.1770000000	convolutional neural networks cnns to
0.1770000000	continuous bag of words
0.1770000000	networks for semantic segmentation
0.1770000000	and in many cases
0.1770000000	methods based on deep
0.1770000000	a mixture of two
0.1770000000	a data set of
0.1770000000	the training of deep
0.1770000000	the experimental results showed
0.1770000000	for deep neural networks
0.1770000000	deep learning models and
0.1770000000	neural networks for classification
0.1770000000	field of machine learning
0.1770000000	for answer set programming
0.1770000000	the high dimensional data
0.1770000000	neural machine translation system
0.1770000000	the number of examples
0.1770000000	optimal rate of convergence
0.1770000000	method for multi
0.1770000000	the same complexity
0.1770000000	the image representation
0.1770000000	for dempster shafer
0.1770000000	the property of
0.1770000000	required to achieve
0.1770000000	types of models
0.1770000000	segmentation of images
0.1770000000	logic programs under
0.1770000000	the adversary s
0.1770000000	the proposed hierarchical
0.1770000000	the original text
0.1770000000	the question answering
0.1770000000	similarity measure between
0.1770000000	applied to data
0.1770000000	few minutes
0.1770000000	problems from
0.1770000000	this system
0.1770000000	signals in
0.1770000000	other subjects
0.1770000000	computed for
0.1770000000	regression for
0.1770000000	points from
0.1770000000	s problem
0.1770000000	execution of
0.1770000000	parameters from
0.1770000000	on distributions
0.1770000000	on contextual
0.1770000000	research work
0.1770000000	smoothness of
0.1770000000	bn and
0.1770000000	complete and
0.1770000000	the measurements
0.1770000000	the smooth
0.1770000000	the nonlocal
0.1770000000	the genre
0.1770000000	the rating
0.1770000000	the library
0.1770000000	operates at
0.1770000000	yields better
0.1770000000	constraint with
0.1770000000	contrast in
0.1770000000	of arguments
0.1770000000	of parts
0.1770000000	of life
0.1770000000	inclusion of
0.1770000000	of item
0.1770000000	substantially more
0.1770000000	to maximise
0.1770000000	conditional on
0.1770000000	lighting changes
0.1770000000	while respecting
0.1770000000	to matrix
0.1770000000	application for
0.1770000000	mean and
0.1770000000	compositions of
0.1770000000	graph into
0.1770000000	obtained as
0.1770000000	runs in
0.1770000000	in gps
0.1770000000	a slice
0.1770000000	a matroid
0.1770000000	ten times
0.1770000000	in segmentation
0.1770000000	a swarm
0.1770000000	in relational
0.1770000000	a corollary
0.1770000000	extent of
0.1770000000	design for
0.1770000000	in face
0.1760000000	the stochastic gradient descent sgd
0.1760000000	of deep neural networks in
0.1760000000	deep reinforcement learning with
0.1760000000	for approximate inference in
0.1760000000	the number of input
0.1760000000	into two parts
0.1760000000	into two categories
0.1760000000	the applications of
0.1760000000	the first part
0.1760000000	the morphology of
0.1760000000	the lower bounds
0.1760000000	the generated images
0.1760000000	in biological systems
0.1760000000	and image reconstruction
0.1760000000	the exact posterior
0.1760000000	of zero shot
0.1760000000	the assessment of
0.1760000000	for compressed sensing
0.1760000000	a reference image
0.1760000000	a dynamic environment
0.1760000000	f 1 score
0.1760000000	a local optimum
0.1760000000	the video frames
0.1760000000	for dependency parsing
0.1760000000	as neural networks
0.1760000000	exploitation trade off
0.1760000000	of white matter
0.1760000000	the factors of
0.1760000000	relatively shallow
0.1760000000	accuracy by
0.1760000000	objective and
0.1760000000	teams of
0.1760000000	style in
0.1760000000	parameterization of
0.1760000000	delineation of
0.1760000000	datasets in
0.1760000000	linearly with
0.1760000000	orientation of
0.1760000000	outperforms both
0.1760000000	first construct
0.1760000000	computation in
0.1760000000	frequency and
0.1760000000	policies in
0.1760000000	shown in
0.1760000000	for functions
0.1760000000	optimized using
0.1760000000	on single
0.1760000000	conducted using
0.1760000000	technology for
0.1760000000	presentation of
0.1760000000	the opportunity
0.1760000000	dialog system
0.1760000000	technique on
0.1760000000	the coherence
0.1760000000	the very
0.1760000000	the pricing
0.1760000000	the losses
0.1760000000	the earliest
0.1760000000	withdrawn by
0.1760000000	the chemical
0.1760000000	m estimators
0.1760000000	such images
0.1760000000	topics from
0.1760000000	such applications
0.1760000000	constraint and
0.1760000000	distributions with
0.1760000000	created from
0.1760000000	no extra
0.1760000000	of edge
0.1760000000	of biomedical
0.1760000000	of influence
0.1760000000	of causality
0.1760000000	of white
0.1760000000	reconstruction using
0.1760000000	estimations of
0.1760000000	exactly recover
0.1760000000	self play
0.1760000000	conditioning on
0.1760000000	to words
0.1760000000	outperformed by
0.1760000000	coresets for
0.1760000000	time delay
0.1760000000	complicated by
0.1760000000	training for
0.1760000000	provide better
0.1760000000	baselines for
0.1760000000	by demonstrating
0.1760000000	time in
0.1760000000	images without
0.1760000000	at runtime
0.1760000000	task using
0.1760000000	approach over
0.1760000000	evolution as
0.1760000000	classifier with
0.1760000000	and network
0.1760000000	and reward
0.1760000000	non degeneracy
0.1760000000	and patch
0.1760000000	and target
0.1760000000	reconstructed from
0.1760000000	and interference
0.1760000000	solutions and
0.1760000000	thereby enabling
0.1760000000	par with
0.1760000000	in historical
0.1760000000	variance in
0.1760000000	a one
0.1760000000	a minimax
0.1760000000	frameworks for
0.1760000000	learnt by
0.1760000000	positions of
0.1750000000	a large scale dataset for
0.1750000000	a large scale dataset of
0.1750000000	a deep learning approach for
0.1750000000	a case study of
0.1750000000	the generative adversarial network
0.1750000000	deep neural networks by
0.1750000000	the same amount of
0.1750000000	the maximum entropy
0.1750000000	non convex loss
0.1750000000	used to provide
0.1750000000	synthetic images and
0.1750000000	the normal distribution
0.1750000000	to medical image
0.1750000000	optimization problems in
0.1750000000	community structure in
0.1750000000	a linear function
0.1750000000	of proposed method
0.1750000000	to bayesian networks
0.1750000000	with probability p
0.1750000000	vast quantities of
0.1750000000	in previous work
0.1750000000	the resulting classifier
0.1750000000	random forests and
0.1750000000	based models and
0.1750000000	an image retrieval
0.1750000000	active learning of
0.1750000000	of scene understanding
0.1750000000	such as language
0.1750000000	a learning machine
0.1750000000	of biological neural
0.1750000000	in knowledge representation
0.1750000000	by deep learning
0.1750000000	for monte carlo
0.1750000000	super resolution using
0.1750000000	set consists of
0.1750000000	deep representations for
0.1750000000	of local features
0.1750000000	and output variables
0.1750000000	the hand crafted
0.1750000000	the target task
0.1750000000	number of components
0.1750000000	in word embeddings
0.1750000000	the generated data
0.1750000000	prior distribution on
0.1750000000	of multi view
0.1750000000	the expected utility
0.1750000000	for machine translation
0.1750000000	of existing techniques
0.1750000000	deep learning with
0.1750000000	sample complexity of
0.1750000000	sampling algorithms for
0.1750000000	segmentation method for
0.1750000000	probability distribution and
0.1750000000	to real world
0.1750000000	based approaches and
0.1750000000	the most significant
0.1750000000	in collaborative filtering
0.1750000000	the proposed deep
0.1750000000	in autonomous driving
0.1750000000	in latent variable
0.1750000000	segmentation and image
0.1750000000	developed to solve
0.1750000000	the learning agent
0.1750000000	the local search
0.1750000000	knowledge graphs and
0.1750000000	first order method
0.1750000000	on reinforcement learning
0.1750000000	edge detection and
0.1750000000	training data of
0.1750000000	finite set of
0.1750000000	of word usage
0.1750000000	of rough set
0.1750000000	a data efficient
0.1750000000	the original network
0.1750000000	for active learning
0.1750000000	the original dataset
0.1750000000	motion estimation and
0.1750000000	the final feature
0.1750000000	bayesian networks for
0.1750000000	a single view
0.1750000000	optimization problem on
0.1750000000	for question answering
0.1750000000	on multi level
0.1750000000	word segmentation and
0.1750000000	question answering system
0.1750000000	the metric space
0.1750000000	the art image
0.1750000000	the art saliency
0.1750000000	processing in
0.1750000000	other factors
0.1750000000	this sense
0.1750000000	robot as
0.1750000000	best knowledge
0.1750000000	different techniques
0.1750000000	s theorem
0.1750000000	several datasets
0.1750000000	symposium on
0.1750000000	many fields
0.1750000000	for scalable
0.1750000000	for describing
0.1750000000	proposals with
0.1750000000	2d shape
0.1750000000	the categorical
0.1750000000	the computed
0.1750000000	the mass
0.1750000000	the larger
0.1750000000	not explicitly
0.1750000000	the moment
0.1750000000	the resulted
0.1750000000	the middle
0.1750000000	the accurate
0.1750000000	the gumbel
0.1750000000	the added
0.1750000000	c d
0.1750000000	dictionary of
0.1750000000	dictionary to
0.1750000000	bring together
0.1750000000	over previous
0.1750000000	constrained least
0.1750000000	system outperforms
0.1750000000	regime changes
0.1750000000	discriminating between
0.1750000000	motion by
0.1750000000	of variable
0.1750000000	to divide
0.1750000000	an attack
0.1750000000	an ability
0.1750000000	to pick
0.1750000000	to adopt
0.1750000000	mean dice
0.1750000000	filtering or
0.1750000000	by approximating
0.1750000000	by estimating
0.1750000000	last decade
0.1750000000	ibm s
0.1750000000	o p
0.1750000000	n l
0.1750000000	non separable
0.1750000000	non decomposable
0.1750000000	and quantify
0.1750000000	and tested
0.1750000000	and reconstruct
0.1750000000	and 5
0.1750000000	in understanding
0.1750000000	in dermoscopy
0.1750000000	in identifying
0.1750000000	in designing
0.1750000000	a remedy
0.1750000000	d x
0.1740000000	the proposed method achieves better
0.1740000000	the kullback leibler divergence between
0.1740000000	a deep neural network architecture
0.1740000000	the availability of large
0.1740000000	a new set of
0.1740000000	the original data and
0.1740000000	the class label
0.1740000000	synthetic data and
0.1740000000	ell 1 ell
0.1740000000	games such as
0.1740000000	a matrix factorization
0.1740000000	rgb d sensor
0.1740000000	trade offs in
0.1740000000	the domains of
0.1740000000	6d pose estimation
0.1740000000	to real data
0.1740000000	dice score of
0.1740000000	the proposed test
0.1740000000	based on distributional
0.1740000000	for graph clustering
0.1740000000	the proposed generative
0.1740000000	training of neural
0.1740000000	empirical results on
0.1740000000	results to show
0.1740000000	developed based on
0.1740000000	on standard image
0.1740000000	of future events
0.1740000000	and missing data
0.1740000000	correlation in
0.1740000000	optimised for
0.1740000000	b mode
0.1740000000	layers for
0.1740000000	different word
0.1740000000	parts from
0.1740000000	sequence using
0.1740000000	3d cad
0.1740000000	interpolating between
0.1740000000	k l
0.1740000000	for speeding
0.1740000000	2d and
0.1740000000	gradient for
0.1740000000	invariants of
0.1740000000	map by
0.1740000000	stream and
0.1740000000	matrix or
0.1740000000	the covariate
0.1740000000	some theoretical
0.1740000000	the median
0.1740000000	logics in
0.1740000000	query and
0.1740000000	discourse and
0.1740000000	system to
0.1740000000	60 years
0.1740000000	matching to
0.1740000000	of components
0.1740000000	of systems
0.1740000000	full generality
0.1740000000	scales and
0.1740000000	objects to
0.1740000000	re weighting
0.1740000000	while suppressing
0.1740000000	thoroughly evaluated
0.1740000000	instantiation of
0.1740000000	networks however
0.1740000000	error for
0.1740000000	programs into
0.1740000000	variables to
0.1740000000	activities from
0.1740000000	in nlp
0.1740000000	in sanskrit
0.1740000000	1 evolutionary
0.1740000000	without additional
0.1740000000	monitoring in
0.1730000000	a large number of features
0.1730000000	a deep learning framework for
0.1730000000	the alternating direction method of
0.1730000000	a deep learning approach to
0.1730000000	a machine learning approach to
0.1730000000	the art in terms of
0.1730000000	the era of big
0.1730000000	the average number of
0.1730000000	the problem of image
0.1730000000	a probabilistic interpretation of
0.1730000000	the machine learning algorithms
0.1730000000	the centers of
0.1730000000	method for detecting
0.1730000000	image denoising with
0.1730000000	the feature vector
0.1730000000	problems in computer
0.1730000000	learning tasks in
0.1730000000	in non convex
0.1730000000	the image space
0.1730000000	markov models with
0.1730000000	and more generally
0.1730000000	method in two
0.1730000000	compared to conventional
0.1730000000	domain knowledge in
0.1730000000	the requirements of
0.1730000000	the strategy of
0.1730000000	transfer knowledge from
0.1730000000	structure learning for
0.1730000000	a first person
0.1730000000	the network parameters
0.1730000000	object localization and
0.1730000000	optimization problem of
0.1730000000	the multi level
0.1730000000	max pooling and
0.1730000000	the art by
0.1730000000	tend to produce
0.1730000000	the art word
0.1730000000	summaries and
0.1730000000	this game
0.1730000000	one domain
0.1730000000	norm in
0.1730000000	depth for
0.1730000000	sequence as
0.1730000000	reasoning as
0.1730000000	different networks
0.1730000000	bounds as
0.1730000000	language such
0.1730000000	different noise
0.1730000000	parts or
0.1730000000	resolution from
0.1730000000	fairness and
0.1730000000	hand by
0.1730000000	for collective
0.1730000000	on models
0.1730000000	median and
0.1730000000	for tamil
0.1730000000	policy of
0.1730000000	hashing for
0.1730000000	becomes intractable
0.1730000000	scheduling in
0.1730000000	clusters by
0.1730000000	the proposals
0.1730000000	feedback and
0.1730000000	the imbalanced
0.1730000000	the quantized
0.1730000000	referents of
0.1730000000	the compilation
0.1730000000	lstms to
0.1730000000	rate with
0.1730000000	the room
0.1730000000	the customers
0.1730000000	bank and
0.1730000000	f1 of
0.1730000000	series or
0.1730000000	memory in
0.1730000000	visualizations to
0.1730000000	nodes as
0.1730000000	system of
0.1730000000	environmental changes
0.1730000000	of grammar
0.1730000000	art at
0.1730000000	action as
0.1730000000	field or
0.1730000000	frame with
0.1730000000	of fake
0.1730000000	of fiber
0.1730000000	of disjunctive
0.1730000000	level or
0.1730000000	action for
0.1730000000	sensing in
0.1730000000	of legal
0.1730000000	of letters
0.1730000000	of sorting
0.1730000000	equivalence of
0.1730000000	cloud and
0.1730000000	binarization of
0.1730000000	instance by
0.1730000000	these variables
0.1730000000	class to
0.1730000000	to models
0.1730000000	to algorithms
0.1730000000	individuals of
0.1730000000	dnn s
0.1730000000	computationally and
0.1730000000	rnn to
0.1730000000	tasks to
0.1730000000	opponent s
0.1730000000	100 million
0.1730000000	content to
0.1730000000	cognitive system
0.1730000000	experiments by
0.1730000000	better local
0.1730000000	focussing on
0.1730000000	label of
0.1730000000	neuron and
0.1730000000	entity and
0.1730000000	intelligence as
0.1730000000	and grammar
0.1730000000	and adaptive
0.1730000000	and algorithm
0.1730000000	and recurrent
0.1730000000	logic or
0.1730000000	carlo for
0.1730000000	or user
0.1730000000	road to
0.1730000000	imaging of
0.1730000000	scenarios to
0.1730000000	probability as
0.1730000000	a computable
0.1730000000	a team
0.1730000000	in active
0.1730000000	variables at
0.1730000000	sentences to
0.1730000000	a biometric
0.1730000000	lda to
0.1730000000	kernels with
0.1720000000	in order to identify
0.1720000000	in order to capture
0.1720000000	in order to generate
0.1720000000	a deep learning algorithm
0.1720000000	a set of parameters
0.1720000000	machine learning algorithms in
0.1720000000	of time series data
0.1720000000	human pose estimation and
0.1720000000	and convolutional neural network
0.1720000000	number of clusters in
0.1720000000	on generative adversarial networks
0.1720000000	a new model of
0.1720000000	the number of feature
0.1720000000	in digital images
0.1720000000	and model selection
0.1720000000	with natural images
0.1720000000	the detection process
0.1720000000	learning methods and
0.1720000000	this article proposes
0.1720000000	of blood vessels
0.1720000000	words based on
0.1720000000	the given image
0.1720000000	the success rate
0.1720000000	for genetic programming
0.1720000000	semantic meaning of
0.1720000000	of local image
0.1720000000	these generative models
0.1720000000	for knowledge representation
0.1720000000	use of information
0.1720000000	several public datasets
0.1720000000	a probability density
0.1720000000	for brain tumor
0.1720000000	to machine translation
0.1720000000	a word embedding
0.1720000000	real time search
0.1720000000	the raw data
0.1720000000	for texture classification
0.1720000000	three challenging datasets
0.1720000000	for word embeddings
0.1720000000	data sets as
0.1720000000	the semantic relations
0.1720000000	a phrase based
0.1720000000	the non convexity
0.1720000000	a monte carlo
0.1720000000	a distributed algorithm
0.1720000000	of belief change
0.1720000000	for image segmentation
0.1720000000	for transfer learning
0.1720000000	on natural images
0.1720000000	some preliminary results
0.1720000000	and nearest neighbor
0.1720000000	the new framework
0.1720000000	this low rank
0.1720000000	dataset and then
0.1720000000	approach for classification
0.1720000000	the model accuracy
0.1720000000	the art face
0.1720000000	sounds and
0.1720000000	new color
0.1720000000	this belief
0.1720000000	other language
0.1720000000	surface of
0.1720000000	prerequisite for
0.1720000000	p d
0.1720000000	case if
0.1720000000	s pose
0.1720000000	captured with
0.1720000000	points to
0.1720000000	help users
0.1720000000	dimensions and
0.1720000000	conducted with
0.1720000000	options and
0.1720000000	set for
0.1720000000	for entity
0.1720000000	for point
0.1720000000	each camera
0.1720000000	classifiers with
0.1720000000	correction in
0.1720000000	examples to
0.1720000000	dependency on
0.1720000000	the aging
0.1720000000	the dissimilarity
0.1720000000	the stationary
0.1720000000	the annotators
0.1720000000	the bounded
0.1720000000	the row
0.1720000000	the worker
0.1720000000	the resnet
0.1720000000	the games
0.1720000000	annotation and
0.1720000000	the symmetry
0.1720000000	some key
0.1720000000	the codebook
0.1720000000	simple but
0.1720000000	approximate value
0.1720000000	of goal
0.1720000000	of directed
0.1720000000	of equations
0.1720000000	of regret
0.1720000000	of incremental
0.1720000000	of nlp
0.1720000000	of shallow
0.1720000000	of vessel
0.1720000000	of cloud
0.1720000000	of personality
0.1720000000	familiar with
0.1720000000	located at
0.1720000000	nets and
0.1720000000	boxes and
0.1720000000	an invariant
0.1720000000	words on
0.1720000000	q 1
0.1720000000	to color
0.1720000000	to data
0.1720000000	these maps
0.1720000000	by implementing
0.1720000000	f divergence
0.1720000000	by 4
0.1720000000	position and
0.1720000000	between latent
0.1720000000	and weather
0.1720000000	and answering
0.1720000000	and images
0.1720000000	gender from
0.1720000000	label and
0.1720000000	split and
0.1720000000	per instance
0.1720000000	a sat
0.1720000000	a revision
0.1720000000	a morphological
0.1720000000	in literary
0.1720000000	in determining
0.1720000000	in answering
0.1720000000	a teacher
0.1720000000	in neuromorphic
0.1720000000	in dialogue
0.1720000000	d p
0.1720000000	d r
0.1710000000	the number of iterations required
0.1710000000	unlike previous work
0.1710000000	the second part
0.1710000000	the data samples
0.1710000000	nearest neighbors in
0.1710000000	learning from data
0.1710000000	this paper argues
0.1710000000	aims to learn
0.1710000000	as to improve
0.1710000000	a k means
0.1710000000	theoretical justification for
0.1710000000	an unsupervised fashion
0.1710000000	the art trackers
0.1710000000	one feature
0.1710000000	defined for
0.1710000000	two nodes
0.1710000000	as data
0.1710000000	p values
0.1710000000	preferences in
0.1710000000	for planning
0.1710000000	the joints
0.1710000000	region in
0.1710000000	the hands
0.1710000000	the concrete
0.1710000000	the faces
0.1710000000	the 2016
0.1710000000	the shift
0.1710000000	the chaotic
0.1710000000	the sequential
0.1710000000	modalities and
0.1710000000	pass through
0.1710000000	logistic and
0.1710000000	of polynomial
0.1710000000	of neuromorphic
0.1710000000	of cognition
0.1710000000	of sound
0.1710000000	of tree
0.1710000000	of neighborhoods
0.1710000000	of teaching
0.1710000000	graphs or
0.1710000000	co evolution
0.1710000000	tackled by
0.1710000000	trees with
0.1710000000	possible solutions
0.1710000000	while incurring
0.1710000000	these parts
0.1710000000	indicator of
0.1710000000	by patch
0.1710000000	images taken
0.1710000000	employed as
0.1710000000	intervals in
0.1710000000	games in
0.1710000000	rank plus
0.1710000000	discussion about
0.1710000000	in mr
0.1710000000	in o
0.1710000000	a hyperspectral
0.1710000000	a delta
0.1710000000	30 frames
0.1710000000	a wikipedia
0.1700000000	for neural machine translation nmt
0.1700000000	a data driven approach for
0.1700000000	a challenging problem due to
0.1700000000	data mining techniques to
0.1700000000	comprehensive set of experiments
0.1700000000	for image classification tasks
0.1700000000	publicly available datasets and
0.1700000000	neural machine translation by
0.1700000000	deal with large scale
0.1700000000	extensive set of experiments
0.1700000000	learning and reinforcement learning
0.1700000000	models based on
0.1700000000	information such as
0.1700000000	the object boundaries
0.1700000000	the characteristic of
0.1700000000	a linear classifier
0.1700000000	in spectral clustering
0.1700000000	the existing method
0.1700000000	polynomial in n
0.1700000000	a deep structured
0.1700000000	sequence of words
0.1700000000	the total cost
0.1700000000	based on latent
0.1700000000	the proposed hybrid
0.1700000000	kernel learning and
0.1700000000	the system performance
0.1700000000	for pattern classification
0.1700000000	in genetic algorithms
0.1700000000	activation functions in
0.1700000000	level representation of
0.1700000000	and syntactic information
0.1700000000	principal components of
0.1700000000	one to
0.1700000000	this raises
0.1700000000	utilized to
0.1700000000	gans to
0.1700000000	species and
0.1700000000	reasoning to
0.1700000000	network or
0.1700000000	counting in
0.1700000000	validated with
0.1700000000	localization system
0.1700000000	bounds in
0.1700000000	solution in
0.1700000000	queries over
0.1700000000	later stage
0.1700000000	k arms
0.1700000000	each element
0.1700000000	research by
0.1700000000	for brain
0.1700000000	for low
0.1700000000	widely available
0.1700000000	fairness in
0.1700000000	monotone and
0.1700000000	varieties of
0.1700000000	music and
0.1700000000	the lesion
0.1700000000	the preliminary
0.1700000000	dictionary in
0.1700000000	the absolute
0.1700000000	triggered by
0.1700000000	generic and
0.1700000000	optimisation with
0.1700000000	strategy in
0.1700000000	system performance
0.1700000000	using local
0.1700000000	flexibility of
0.1700000000	local mean
0.1700000000	strategies on
0.1700000000	branches of
0.1700000000	of physics
0.1700000000	i present
0.1700000000	of efficient
0.1700000000	level by
0.1700000000	of finite
0.1700000000	search from
0.1700000000	of forgetting
0.1700000000	of science
0.1700000000	of optimization
0.1700000000	of syntactic
0.1700000000	of extended
0.1700000000	of gps
0.1700000000	of melanoma
0.1700000000	of representative
0.1700000000	of hypotheses
0.1700000000	graphs of
0.1700000000	shape in
0.1700000000	unification and
0.1700000000	rl and
0.1700000000	transformations from
0.1700000000	an electronic
0.1700000000	an nlp
0.1700000000	landmarks in
0.1700000000	content in
0.1700000000	agents for
0.1700000000	large for
0.1700000000	content as
0.1700000000	risk in
0.1700000000	neuron to
0.1700000000	entropy in
0.1700000000	and presents
0.1700000000	and visualization
0.1700000000	and complete
0.1700000000	preservation of
0.1700000000	particles and
0.1700000000	and partially
0.1700000000	and predicting
0.1700000000	programs to
0.1700000000	video for
0.1700000000	logic in
0.1700000000	ingredient of
0.1700000000	convolution with
0.1700000000	a discrepancy
0.1700000000	in clinical
0.1700000000	loss as
0.1700000000	output of
0.1700000000	in drug
0.1700000000	in continuous
0.1700000000	in egocentric
0.1700000000	sequences into
0.1700000000	segmentation as
0.1690000000	the proposed method achieves state of
0.1690000000	deep neural networks in
0.1690000000	used to reduce
0.1690000000	the second layer
0.1690000000	able to exploit
0.1690000000	differential privacy and
0.1690000000	in knowledge graphs
0.1690000000	the spatial information
0.1690000000	semantic segmentation of
0.1690000000	a new image
0.1690000000	rgb d datasets
0.1690000000	languages based on
0.1690000000	image segmentation and
0.1690000000	computational approach to
0.1690000000	far from optimal
0.1690000000	taken together
0.1690000000	shared among
0.1690000000	this relationship
0.1690000000	evaluated and
0.1690000000	knowledge on
0.1690000000	testing on
0.1690000000	new approach
0.1690000000	constraints of
0.1690000000	prior over
0.1690000000	practical use
0.1690000000	several tasks
0.1690000000	several interesting
0.1690000000	always hold
0.1690000000	down sampled
0.1690000000	invariant under
0.1690000000	cells in
0.1690000000	expected value
0.1690000000	each episode
0.1690000000	for experts
0.1690000000	for controlling
0.1690000000	each person
0.1690000000	for quantifying
0.1690000000	each of
0.1690000000	from previous
0.1690000000	for historical
0.1690000000	for capturing
0.1690000000	zero entries
0.1690000000	recovery from
0.1690000000	some basic
0.1690000000	theory to
0.1690000000	stream of
0.1690000000	theory in
0.1690000000	the initialization
0.1690000000	not feasible
0.1690000000	the earth
0.1690000000	the enhanced
0.1690000000	systems using
0.1690000000	heuristic for
0.1690000000	the retrieved
0.1690000000	the spanish
0.1690000000	the quadratic
0.1690000000	correctness of
0.1690000000	topics for
0.1690000000	assist in
0.1690000000	detrimental to
0.1690000000	of intelligent
0.1690000000	top ranked
0.1690000000	of choice
0.1690000000	of errors
0.1690000000	of clinical
0.1690000000	built by
0.1690000000	passes through
0.1690000000	to push
0.1690000000	to systematically
0.1690000000	to link
0.1690000000	to limit
0.1690000000	to target
0.1690000000	an attribute
0.1690000000	an exploratory
0.1690000000	to different
0.1690000000	deployed on
0.1690000000	description and
0.1690000000	log 3
0.1690000000	features like
0.1690000000	classification or
0.1690000000	labeled by
0.1690000000	non degenerate
0.1690000000	and reliable
0.1690000000	and comparing
0.1690000000	and powerful
0.1690000000	and generalization
0.1690000000	goals and
0.1690000000	removed from
0.1690000000	a surprising
0.1690000000	function over
0.1690000000	in india
0.1690000000	a richer
0.1690000000	a relevant
0.1690000000	in performance
0.1690000000	a textual
0.1690000000	a background
0.1690000000	a pipeline
0.1690000000	sequences to
0.1690000000	potential to
0.1690000000	fundamental to
0.1690000000	separation between
0.1680000000	the proposed approach compared to
0.1680000000	the exploration exploitation trade off
0.1680000000	a sparse linear combination of
0.1680000000	an open source implementation of
0.1680000000	the proposed method compared to
0.1680000000	an alternating direction method of
0.1680000000	an efficient algorithm based on
0.1680000000	a low dimensional representation of
0.1680000000	the experiment results show
0.1680000000	the approach proposed
0.1680000000	the data manifold
0.1680000000	the data association
0.1680000000	the maximum weight
0.1680000000	the facial expression
0.1680000000	of weakly supervised
0.1680000000	and statistical learning
0.1680000000	mixture model to
0.1680000000	regression problem and
0.1680000000	a learning based
0.1680000000	the agent learns
0.1680000000	the principal component
0.1680000000	for spoken dialogue
0.1680000000	order to find
0.1680000000	time series modeling
0.1680000000	the shortcomings of
0.1680000000	in ai systems
0.1680000000	the optimal path
0.1680000000	a search algorithm
0.1680000000	of spectral clustering
0.1680000000	a theoretical model
0.1680000000	a heuristic search
0.1680000000	an auc of
0.1680000000	the depth information
0.1680000000	and generalization error
0.1680000000	for face alignment
0.1680000000	the learned embedding
0.1680000000	the next frame
0.1680000000	the power grid
0.1680000000	the visual content
0.1680000000	for representation learning
0.1680000000	for face detection
0.1680000000	for manifold learning
0.1680000000	of size n
0.1680000000	the proposed descriptor
0.1680000000	adversarial examples and
0.1680000000	the continuous time
0.1680000000	the evaluation results
0.1680000000	as high level
0.1680000000	depth estimation from
0.1680000000	and negative examples
0.1680000000	for large datasets
0.1680000000	in x ray
0.1680000000	the spectral domain
0.1680000000	the input features
0.1680000000	the input matrix
0.1680000000	from raw images
0.1680000000	network analysis and
0.1680000000	network model for
0.1680000000	the early stage
0.1680000000	for relation extraction
0.1680000000	to end convolutional
0.1680000000	training set and
0.1680000000	learning problem with
0.1680000000	missing values in
0.1680000000	model uses
0.1680000000	accuracy while
0.1680000000	navigate through
0.1680000000	registration with
0.1680000000	much shorter
0.1680000000	several techniques
0.1680000000	as object
0.1680000000	for keyword
0.1680000000	on normal
0.1680000000	for tensors
0.1680000000	for sensor
0.1680000000	k m
0.1680000000	many ways
0.1680000000	net with
0.1680000000	the near
0.1680000000	the inception
0.1680000000	the temperature
0.1680000000	the convnet
0.1680000000	the instantiation
0.1680000000	responds to
0.1680000000	states in
0.1680000000	of rule
0.1680000000	of water
0.1680000000	of affairs
0.1680000000	of summarization
0.1680000000	of rational
0.1680000000	of urban
0.1680000000	of quality
0.1680000000	views and
0.1680000000	nets with
0.1680000000	these filters
0.1680000000	sample and
0.1680000000	directly with
0.1680000000	these kernels
0.1680000000	good practices
0.1680000000	time periods
0.1680000000	by fitting
0.1680000000	last decades
0.1680000000	increases with
0.1680000000	surveillance system
0.1680000000	non classical
0.1680000000	even surpass
0.1680000000	and particle
0.1680000000	achieved for
0.1680000000	track of
0.1680000000	tests for
0.1680000000	thereby allowing
0.1680000000	d log
0.1670000000	in terms of time and
0.1670000000	in many applications such as
0.1670000000	with other state of
0.1670000000	the benefit of using
0.1670000000	this work aims to
0.1670000000	the addition of new
0.1670000000	in machine translation and
0.1670000000	o 1 sqrt t
0.1670000000	this paper makes two
0.1670000000	to perform well in
0.1670000000	at least one of
0.1670000000	with many applications in
0.1670000000	used for training and
0.1670000000	a novel methodology for
0.1670000000	this gives rise to
0.1670000000	show significant improvement over
0.1670000000	the art accuracy in
0.1670000000	the training process of
0.1670000000	the results obtained show
0.1670000000	the experiments conducted on
0.1670000000	the art systems on
0.1670000000	the possibility of using
0.1670000000	a new methodology for
0.1670000000	convolutional neural network and
0.1670000000	better performance than other
0.1670000000	the experimental results indicate
0.1670000000	on several synthetic and
0.1670000000	an empirical study on
0.1670000000	the recent advances in
0.1670000000	the global optimum of
0.1670000000	and lower bounds on
0.1670000000	a learning algorithm for
0.1670000000	a certain level of
0.1670000000	the general case of
0.1670000000	on two widely used
0.1670000000	of great importance in
0.1670000000	a computational model for
0.1670000000	the first step in
0.1670000000	the lower bound of
0.1670000000	does not need to
0.1670000000	the heart of many
0.1670000000	the main challenge in
0.1670000000	computer graphics and
0.1670000000	and reliability of
0.1670000000	the modelling of
0.1670000000	and comparisons with
0.1670000000	a meaningful way
0.1670000000	and recall of
0.1670000000	during test time
0.1670000000	a sense of
0.1670000000	with emphasis on
0.1670000000	as demonstrated by
0.1670000000	the bias of
0.1670000000	and community detection
0.1670000000	to fill in
0.1670000000	an easy task
0.1670000000	the location and
0.1670000000	linear non gaussian
0.1670000000	train and evaluate
0.1670000000	to go beyond
0.1670000000	the validation of
0.1670000000	the areas of
0.1670000000	the dependencies between
0.1670000000	the conditions of
0.1670000000	self organization of
0.1670000000	and simplicity of
0.1670000000	the outputs from
0.1670000000	many scientific and
0.1670000000	with humans in
0.1670000000	the verification of
0.1670000000	in brain computer
0.1670000000	and top down
0.1670000000	a criterion for
0.1670000000	much simpler than
0.1670000000	the connections between
0.1670000000	the advantages and
0.1670000000	for use with
0.1670000000	and reason about
0.1670000000	a binary classifier
0.1670000000	a library of
0.1670000000	the social sciences
0.1670000000	the pipeline of
0.1670000000	the interactions among
0.1670000000	as many as
0.1670000000	both quantitatively and
0.1670000000	a completely different
0.1670000000	to respond to
0.1670000000	a prototype of
0.1670000000	a constraint on
0.1670000000	the requirement for
0.1670000000	the collection of
0.1670000000	work well for
0.1670000000	that none of
0.1670000000	old and new
0.1670000000	the strengths and
0.1670000000	the rate at
0.1670000000	a student s
0.1670000000	reinforcement learning to
0.1670000000	and many others
0.1670000000	far away from
0.1670000000	the measurement of
0.1670000000	the consistency between
0.1670000000	the quantification of
0.1670000000	new light on
0.1670000000	better accuracy than
0.1670000000	the flexibility and
0.1670000000	on mnist and
0.1670000000	each node of
0.1670000000	the challenges of
0.1670000000	and relations of
0.1670000000	more expressive than
0.1670000000	all at once
0.1670000000	on one side
0.1670000000	the notions of
0.1670000000	new image
0.1670000000	one for
0.1670000000	arriving at
0.1670000000	overall average
0.1670000000	as text
0.1670000000	varies across
0.1670000000	complemented with
0.1670000000	for bandit
0.1670000000	for cloud
0.1670000000	from motion
0.1670000000	2d face
0.1670000000	pearson s
0.1670000000	the errors
0.1670000000	the attentional
0.1670000000	the frequent
0.1670000000	the polynomial
0.1670000000	the opinions
0.1670000000	the return
0.1670000000	the options
0.1670000000	the autoregressive
0.1670000000	the coding
0.1670000000	the reports
0.1670000000	c n
0.1670000000	the rgb
0.1670000000	the zero
0.1670000000	units as
0.1670000000	programming by
0.1670000000	of chinese
0.1670000000	of two
0.1670000000	of biometric
0.1670000000	of maps
0.1670000000	of merging
0.1670000000	of distribution
0.1670000000	of iot
0.1670000000	of fractional
0.1670000000	ill defined
0.1670000000	to random
0.1670000000	to user
0.1670000000	to universal
0.1670000000	between languages
0.1670000000	t convergence
0.1670000000	by subsampling
0.1670000000	non convexity
0.1670000000	and interaction
0.1670000000	n step
0.1670000000	with vector
0.1670000000	and as
0.1670000000	and utility
0.1670000000	with topic
0.1670000000	and ear
0.1670000000	solved exactly
0.1670000000	a junction
0.1670000000	in undirected
0.1670000000	a competition
0.1670000000	a tracking
0.1670000000	a gp
0.1670000000	a dependency
0.1660000000	a series of experiments on
0.1660000000	part of speech tagging and
0.1660000000	on pascal voc 2007 and
0.1660000000	in polynomial time and
0.1660000000	a deep architecture for
0.1660000000	on benchmark datasets show
0.1660000000	on deep neural networks
0.1660000000	and compares favorably to
0.1660000000	a challenging problem in
0.1660000000	an alternative approach to
0.1660000000	the art method for
0.1660000000	an open problem in
0.1660000000	to perform well on
0.1660000000	both with and without
0.1660000000	a probability distribution on
0.1660000000	the inverse problem of
0.1660000000	to improve performance of
0.1660000000	an important problem for
0.1660000000	a high level of
0.1660000000	used in combination with
0.1660000000	a general approach for
0.1660000000	a set of constraints
0.1660000000	the time required to
0.1660000000	a case study in
0.1660000000	does not scale well
0.1660000000	a framework based on
0.1660000000	a powerful tool in
0.1660000000	a novel way to
0.1660000000	divide and conquer strategy
0.1660000000	of great importance for
0.1660000000	a real world dataset
0.1660000000	first order methods for
0.1660000000	the two types of
0.1660000000	the upper bound on
0.1660000000	a significant improvement on
0.1660000000	in space and time
0.1660000000	more powerful than
0.1660000000	an area under
0.1660000000	to decide whether
0.1660000000	problem and provide
0.1660000000	an increasing need
0.1660000000	an intelligent system
0.1660000000	a role in
0.1660000000	an opportunity for
0.1660000000	inner workings of
0.1660000000	rules based on
0.1660000000	the prediction results
0.1660000000	the dependence on
0.1660000000	the decrease in
0.1660000000	tracking of multiple
0.1660000000	the second method
0.1660000000	one step further
0.1660000000	an indicator of
0.1660000000	an explanation for
0.1660000000	an easy way
0.1660000000	by resorting to
0.1660000000	in nature and
0.1660000000	a reduction of
0.1660000000	very well on
0.1660000000	transfer learning and
0.1660000000	models with different
0.1660000000	a precision of
0.1660000000	to work with
0.1660000000	a pipeline of
0.1660000000	a map of
0.1660000000	better solutions than
0.1660000000	to concentrate on
0.1660000000	sensitivity analysis of
0.1660000000	the opportunity to
0.1660000000	i and ii
0.1660000000	more compact than
0.1660000000	q learning algorithm
0.1660000000	number of sub
0.1660000000	an experiment in
0.1660000000	time series clustering
0.1660000000	the coverage of
0.1660000000	the different methods
0.1660000000	number of comparisons
0.1660000000	framework for online
0.1660000000	rgb d videos
0.1660000000	in statistical learning
0.1660000000	of color images
0.1660000000	the proof of
0.1660000000	a gap between
0.1660000000	a new similarity
0.1660000000	recognition accuracy and
0.1660000000	challenges such as
0.1660000000	embeddings based on
0.1660000000	particularly suited for
0.1660000000	with better performance
0.1660000000	as suggested by
0.1660000000	to look for
0.1660000000	to interact with
0.1660000000	the next layer
0.1660000000	a mapping of
0.1660000000	the supervised learning
0.1660000000	the structured output
0.1660000000	no assumptions about
0.1660000000	learning algorithms and
0.1660000000	the degrees of
0.1660000000	the dependency between
0.1660000000	deep learning as
0.1660000000	deep learning of
0.1660000000	based on low
0.1660000000	the requirements for
0.1660000000	in o 1
0.1660000000	detection rate and
0.1660000000	problems and to
0.1660000000	make sense of
0.1660000000	the choices of
0.1660000000	the semantic relation
0.1660000000	word co occurrence
0.1660000000	of such algorithms
0.1660000000	in part by
0.1660000000	and many more
0.1660000000	in part because
0.1660000000	the scenario of
0.1660000000	in tandem with
0.1660000000	models trained with
0.1660000000	very important in
0.1660000000	the improvement of
0.1660000000	the reliability and
0.1660000000	the two networks
0.1660000000	more effectively than
0.1660000000	of other users
0.1660000000	become popular in
0.1660000000	by looking at
0.1660000000	a 2 d
0.1660000000	meaning of words
0.1660000000	well approximated by
0.1660000000	better suited for
0.1660000000	a drawback of
0.1660000000	for activity recognition
0.1660000000	a methodology for
0.1660000000	a vision system
0.1660000000	both binary and
0.1660000000	n log 2
0.1660000000	the correctness and
0.1660000000	the final saliency
0.1660000000	architectures such as
0.1660000000	the scope and
0.1660000000	search and retrieval
0.1660000000	scale well with
0.1660000000	each node in
0.1660000000	approach for multi
0.1660000000	very popular in
0.1660000000	task of detecting
0.1660000000	too expensive to
0.1660000000	this version
0.1660000000	forests with
0.1660000000	exploration for
0.1660000000	new metric
0.1660000000	this functional
0.1660000000	new proposed
0.1660000000	user to
0.1660000000	new content
0.1660000000	both face
0.1660000000	root and
0.1660000000	b matrix
0.1660000000	this subset
0.1660000000	this decision
0.1660000000	energy in
0.1660000000	constraints from
0.1660000000	two efficient
0.1660000000	different temporal
0.1660000000	s eye
0.1660000000	s speech
0.1660000000	novel cnn
0.1660000000	source in
0.1660000000	novel evolutionary
0.1660000000	different nodes
0.1660000000	novel classes
0.1660000000	image while
0.1660000000	first experiment
0.1660000000	2 approximation
0.1660000000	as information
0.1660000000	into object
0.1660000000	as depth
0.1660000000	evidence as
0.1660000000	ranking to
0.1660000000	3d feature
0.1660000000	3d image
0.1660000000	3d structures
0.1660000000	person or
0.1660000000	tracks and
0.1660000000	stage with
0.1660000000	on english
0.1660000000	on class
0.1660000000	for person
0.1660000000	machines as
0.1660000000	from feature
0.1660000000	for fingerprint
0.1660000000	for adversarial
0.1660000000	for type
0.1660000000	for interaction
0.1660000000	for ontology
0.1660000000	for keypoint
0.1660000000	on application
0.1660000000	on retrieval
0.1660000000	for intrinsic
0.1660000000	on facial
0.1660000000	from unsupervised
0.1660000000	on texture
0.1660000000	for dialogue
0.1660000000	for lda
0.1660000000	from brain
0.1660000000	for light
0.1660000000	on causal
0.1660000000	on approximation
0.1660000000	calculus in
0.1660000000	the plans
0.1660000000	the spectra
0.1660000000	requests and
0.1660000000	the recommendations
0.1660000000	experts to
0.1660000000	the blood
0.1660000000	the neuromorphic
0.1660000000	the disambiguation
0.1660000000	matrix using
0.1660000000	the pca
0.1660000000	the filtering
0.1660000000	matrix for
0.1660000000	the tensors
0.1660000000	the curriculum
0.1660000000	the occupancy
0.1660000000	the complement
0.1660000000	the bandwidth
0.1660000000	the solver
0.1660000000	the records
0.1660000000	the channels
0.1660000000	the relaxed
0.1660000000	the white
0.1660000000	the coordinate
0.1660000000	the tag
0.1660000000	the scoring
0.1660000000	the transportation
0.1660000000	the female
0.1660000000	the occlusion
0.1660000000	the printed
0.1660000000	the delay
0.1660000000	logics of
0.1660000000	neurons with
0.1660000000	memory of
0.1660000000	known object
0.1660000000	tables in
0.1660000000	subspaces in
0.1660000000	such agents
0.1660000000	momentum and
0.1660000000	valid for
0.1660000000	nodes to
0.1660000000	forest with
0.1660000000	of attack
0.1660000000	of csp
0.1660000000	almost linearly
0.1660000000	of path
0.1660000000	subspace in
0.1660000000	motion with
0.1660000000	of proposals
0.1660000000	of detection
0.1660000000	of community
0.1660000000	of point
0.1660000000	ga with
0.1660000000	of recommendation
0.1660000000	of phrase
0.1660000000	of intersection
0.1660000000	of environment
0.1660000000	of l1
0.1660000000	of classifier
0.1660000000	particularly attractive
0.1660000000	of tensors
0.1660000000	of ensemble
0.1660000000	of media
0.1660000000	of set
0.1660000000	of weakly
0.1660000000	of vae
0.1660000000	of genetic
0.1660000000	of disease
0.1660000000	stimuli in
0.1660000000	of dictionaries
0.1660000000	of annotation
0.1660000000	of nonconvex
0.1660000000	of validation
0.1660000000	of population
0.1660000000	pedestrian and
0.1660000000	documents of
0.1660000000	of thought
0.1660000000	of anomalies
0.1660000000	of compounds
0.1660000000	kernel in
0.1660000000	structural changes
0.1660000000	mean curvature
0.1660000000	class using
0.1660000000	regularization as
0.1660000000	measure in
0.1660000000	to software
0.1660000000	an argumentation
0.1660000000	beliefs of
0.1660000000	to policy
0.1660000000	to trust
0.1660000000	to optimal
0.1660000000	to action
0.1660000000	to creating
0.1660000000	these priors
0.1660000000	to denoise
0.1660000000	to drug
0.1660000000	to registration
0.1660000000	noise on
0.1660000000	these graphs
0.1660000000	dynamic time
0.1660000000	time approximation
0.1660000000	derived in
0.1660000000	at object
0.1660000000	rnn and
0.1660000000	between attributes
0.1660000000	by optimization
0.1660000000	better representation
0.1660000000	divergence as
0.1660000000	measures with
0.1660000000	navigation in
0.1660000000	russian and
0.1660000000	cluster in
0.1660000000	neuron with
0.1660000000	part segmentation
0.1660000000	boosting and
0.1660000000	and operators
0.1660000000	directions for
0.1660000000	and game
0.1660000000	tags in
0.1660000000	non occluded
0.1660000000	and skip
0.1660000000	brain as
0.1660000000	and land
0.1660000000	and music
0.1660000000	and fusion
0.1660000000	object of
0.1660000000	and street
0.1660000000	and source
0.1660000000	pressure to
0.1660000000	and event
0.1660000000	and layer
0.1660000000	and phrases
0.1660000000	patches using
0.1660000000	classifier from
0.1660000000	ai in
0.1660000000	object to
0.1660000000	and emotional
0.1660000000	encoder to
0.1660000000	a resolution
0.1660000000	alignments and
0.1660000000	in dl
0.1660000000	whole training
0.1660000000	in scale
0.1660000000	in networks
0.1660000000	in persian
0.1660000000	a cutting
0.1660000000	in meaning
0.1660000000	d separation
0.1660000000	in painting
0.1660000000	in product
0.1660000000	or numerical
0.1660000000	in cost
0.1660000000	or color
0.1660000000	in dct
0.1660000000	in kernel
0.1660000000	sentences for
0.1660000000	in parsing
0.1660000000	or kernel
0.1650000000	the success of deep learning in
0.1650000000	two orders of magnitude faster than
0.1650000000	in terms of performance and
0.1650000000	a very small number of
0.1650000000	the de facto standard for
0.1650000000	in terms of accuracy and
0.1650000000	a very large number of
0.1650000000	in theory and practice of
0.1650000000	at least as well as
0.1650000000	a lot of attention in
0.1650000000	the huge amount of
0.1650000000	a theoretical framework for
0.1650000000	particularly well suited to
0.1650000000	the posterior distribution over
0.1650000000	an important tool for
0.1650000000	an efficient method for
0.1650000000	second order statistics of
0.1650000000	an automatic method for
0.1650000000	a unified approach for
0.1650000000	a valuable tool for
0.1650000000	a promising approach for
0.1650000000	a promising approach to
0.1650000000	better results compared to
0.1650000000	the system consists of
0.1650000000	a test set of
0.1650000000	an unsupervised method for
0.1650000000	an algorithmic framework for
0.1650000000	the art performances on
0.1650000000	able to adapt to
0.1650000000	an efficient approach to
0.1650000000	the simulation results show
0.1650000000	an error rate of
0.1650000000	the marginal likelihood of
0.1650000000	a systematic approach to
0.1650000000	the main idea of
0.1650000000	an infinite number of
0.1650000000	this paper aims at
0.1650000000	the art accuracy on
0.1650000000	mean square error of
0.1650000000	with increasing number of
0.1650000000	a higher level of
0.1650000000	a general method for
0.1650000000	the results obtained from
0.1650000000	the novel task of
0.1650000000	in time linear in
0.1650000000	on simulated data and
0.1650000000	and competitive results on
0.1650000000	on synthetic data and
0.1650000000	both space and time
0.1650000000	the model does not
0.1650000000	a general approach to
0.1650000000	the results obtained by
0.1650000000	the early detection of
0.1650000000	for semantic segmentation and
0.1650000000	a set of images
0.1650000000	in near real time
0.1650000000	a useful tool for
0.1650000000	a popular approach for
0.1650000000	a probabilistic model for
0.1650000000	a period of time
0.1650000000	a minimal set of
0.1650000000	without prior knowledge of
0.1650000000	almost as good as
0.1650000000	a model trained on
0.1650000000	a statistical model for
0.1650000000	at different levels of
0.1650000000	computer aided diagnosis of
0.1650000000	a simple algorithm for
0.1650000000	a probabilistic model of
0.1650000000	in depth analysis of
0.1650000000	a lower bound of
0.1650000000	by as much as
0.1650000000	a strong baseline for
0.1650000000	the recent progress in
0.1650000000	the use of multi
0.1650000000	the data collected from
0.1650000000	the two kinds of
0.1650000000	an empirical study of
0.1650000000	the same way as
0.1650000000	but not limited to
0.1650000000	the recent state of
0.1650000000	available at training time
0.1650000000	a mathematical framework for
0.1650000000	an experimental evaluation on
0.1650000000	a hybrid approach to
0.1650000000	a large pool of
0.1650000000	a generic framework for
0.1650000000	a principled approach to
0.1650000000	better than state of
0.1650000000	a first step toward
0.1650000000	a key component in
0.1650000000	a first step in
0.1650000000	a unifying framework for
0.1650000000	and challenging problem in
0.1650000000	the ultimate goal of
0.1650000000	a major issue in
0.1650000000	a novel way of
0.1650000000	a new benchmark for
0.1650000000	a novel model for
0.1650000000	a new measure of
0.1650000000	to produce state of
0.1650000000	on cifar 10 and
0.1650000000	a computational model of
0.1650000000	the source code and
0.1650000000	the obtained results show
0.1650000000	no prior knowledge of
0.1650000000	these methods do not
0.1650000000	a major challenge for
0.1650000000	so as to make
0.1650000000	and easy to use
0.1650000000	with applications ranging from
0.1650000000	a novel architecture for
0.1650000000	the basic idea of
0.1650000000	the key idea of
0.1650000000	a key challenge in
0.1650000000	a novel class of
0.1650000000	to work well in
0.1650000000	a system based on
0.1650000000	a broader range of
0.1650000000	the number of machines
0.1650000000	a new model for
0.1650000000	a common approach to
0.1650000000	a bayesian framework for
0.1650000000	a new architecture for
0.1650000000	the same type of
0.1650000000	an effective tool for
0.1650000000	the same or different
0.1650000000	a new technique for
0.1650000000	and does not need
0.1650000000	a significant improvement of
0.1650000000	method for evaluating
0.1650000000	one or several
0.1650000000	the divergence between
0.1650000000	to escape from
0.1650000000	the difficulties of
0.1650000000	to converge to
0.1650000000	the algebra of
0.1650000000	the sentiment polarity
0.1650000000	the foundation for
0.1650000000	an abstraction of
0.1650000000	a cascade of
0.1650000000	natural language to
0.1650000000	a connection with
0.1650000000	a connection to
0.1650000000	a spectrum of
0.1650000000	and runs at
0.1650000000	the ideas of
0.1650000000	the proposal of
0.1650000000	genetic programming to
0.1650000000	both visually and
0.1650000000	an entirely new
0.1650000000	a reduction to
0.1650000000	an emphasis on
0.1650000000	to react to
0.1650000000	information to generate
0.1650000000	the hardness of
0.1650000000	and interpretability of
0.1650000000	as efficiently as
0.1650000000	and uniqueness of
0.1650000000	two or three
0.1650000000	attention mechanism to
0.1650000000	make predictions about
0.1650000000	the investigation of
0.1650000000	the handling of
0.1650000000	the configuration of
0.1650000000	as simple as
0.1650000000	keep track of
0.1650000000	the discrimination of
0.1650000000	the links between
0.1650000000	of practical interest
0.1650000000	the door for
0.1650000000	a stream of
0.1650000000	a pool of
0.1650000000	the unification of
0.1650000000	a limitation of
0.1650000000	problem of joint
0.1650000000	a step toward
0.1650000000	the inability of
0.1650000000	a robotic system
0.1650000000	the practice of
0.1650000000	a focus of
0.1650000000	the gain in
0.1650000000	the run time
0.1650000000	the assumptions of
0.1650000000	the separation between
0.1650000000	the validity and
0.1650000000	the intuition behind
0.1650000000	the pursuit of
0.1650000000	not scale well
0.1650000000	the feasibility and
0.1650000000	the act of
0.1650000000	each stage of
0.1650000000	covariance matrix and
0.1650000000	an estimator of
0.1650000000	currently in use
0.1650000000	number of documents
0.1650000000	linear functions of
0.1650000000	the boundary between
0.1650000000	time polynomial in
0.1650000000	and practice of
0.1650000000	missing data and
0.1650000000	made available to
0.1650000000	the reason for
0.1650000000	the distances between
0.1650000000	number of rounds
0.1650000000	for multi person
0.1650000000	a subclass of
0.1650000000	a proxy for
0.1650000000	in agreement with
0.1650000000	the correlations between
0.1650000000	a dynamical system
0.1650000000	the currently available
0.1650000000	a gain of
0.1650000000	a recall of
0.1650000000	more parameters than
0.1650000000	rgb d camera
0.1650000000	a foundation for
0.1650000000	a sum of
0.1650000000	a proposal for
0.1650000000	a cluster of
0.1650000000	a contribution to
0.1650000000	image retrieval using
0.1650000000	a tradeoff between
0.1650000000	a correspondence between
0.1650000000	a portion of
0.1650000000	a tedious and
0.1650000000	a bank of
0.1650000000	piece of text
0.1650000000	the consideration of
0.1650000000	each pixel in
0.1650000000	from pixels to
0.1650000000	the variability in
0.1650000000	the relationships among
0.1650000000	model for image
0.1650000000	an investigation of
0.1650000000	based method to
0.1650000000	to resort to
0.1650000000	the similarities and
0.1650000000	a mapping between
0.1650000000	in time and
0.1650000000	a library for
0.1650000000	and scalability of
0.1650000000	used successfully in
0.1650000000	network in order
0.1650000000	the conversion of
0.1650000000	the naturalness of
0.1650000000	the similarities between
0.1650000000	one language to
0.1650000000	convergence analysis of
0.1650000000	the realization of
0.1650000000	modeling and forecasting
0.1650000000	in support of
0.1650000000	in such models
0.1650000000	machine learning system
0.1650000000	a refinement of
0.1650000000	a taxonomy of
0.1650000000	a recommender system
0.1650000000	the extension of
0.1650000000	the relationship among
0.1650000000	the burden of
0.1650000000	the preservation of
0.1650000000	the ease of
0.1650000000	too large to
0.1650000000	a sensitivity of
0.1650000000	the mapping between
0.1650000000	each training example
0.1650000000	the building of
0.1650000000	a drop in
0.1650000000	a preference for
0.1650000000	a toy example
0.1650000000	the fraction of
0.1650000000	a more realistic
0.1650000000	the mapping from
0.1650000000	a composition of
0.1650000000	the redundancy of
0.1650000000	a mismatch between
0.1650000000	within and between
0.1650000000	and ell 2
0.1650000000	the specification of
0.1650000000	planning and control
0.1650000000	some sort of
0.1650000000	the redundancy in
0.1650000000	the trajectory of
0.1650000000	the restoration of
0.1650000000	each pair of
0.1650000000	the proportion of
0.1650000000	in today s
0.1650000000	in term of
0.1650000000	the effort of
0.1650000000	get stuck in
0.1650000000	a neighborhood of
0.1650000000	a myriad of
0.1650000000	the status of
0.1650000000	and maintenance of
0.1650000000	in relation to
0.1650000000	the balance between
0.1650000000	the causes of
0.1650000000	the propagation of
0.1650000000	each player s
0.1650000000	first step toward
0.1650000000	first steps towards
0.1650000000	both single and
0.1650000000	more information than
0.1650000000	to end without
0.1650000000	from noisy labels
0.1650000000	the growth of
0.1650000000	the principles of
0.1650000000	an abundance of
0.1650000000	more often than
0.1650000000	weighted least squares
0.1650000000	the organization of
0.1650000000	the motivation behind
0.1650000000	the motivation of
0.1650000000	the rows of
0.1650000000	the placement of
0.1650000000	techniques for image
0.1650000000	one billion
0.1650000000	model over
0.1650000000	validated using
0.1650000000	as robust
0.1650000000	two level
0.1650000000	bit per
0.1650000000	comparisons to
0.1650000000	same input
0.1650000000	for solar
0.1650000000	just o
0.1650000000	robustness in
0.1650000000	promise for
0.1650000000	the vehicles
0.1650000000	the merging
0.1650000000	the orl
0.1650000000	the aog
0.1650000000	the land
0.1650000000	the ratings
0.1650000000	the hypervolume
0.1650000000	the multiclass
0.1650000000	the tension
0.1650000000	the labeling
0.1650000000	the declarative
0.1650000000	the rbm
0.1650000000	association between
0.1650000000	minimization and
0.1650000000	characterized as
0.1650000000	information through
0.1650000000	using topic
0.1650000000	pooling and
0.1650000000	parametrization of
0.1650000000	effects in
0.1650000000	of geo
0.1650000000	architecture in
0.1650000000	of articulation
0.1650000000	of alignment
0.1650000000	true for
0.1650000000	of lung
0.1650000000	of sensor
0.1650000000	only partially
0.1650000000	method by
0.1650000000	any specific
0.1650000000	dependencies and
0.1650000000	regularization in
0.1650000000	to object
0.1650000000	an impact
0.1650000000	conference on
0.1650000000	controllers for
0.1650000000	and prediction
0.1650000000	care of
0.1650000000	a grassmann
0.1650000000	a center
0.1650000000	d t
0.1640000000	on synthetic and real data show
0.1640000000	many real world applications such as
0.1640000000	to make full use of
0.1640000000	a random walk on
0.1640000000	a specific type of
0.1640000000	the art techniques for
0.1640000000	a region of interest
0.1640000000	an effective method for
0.1640000000	the results obtained using
0.1640000000	level co occurrence matrix
0.1640000000	a simple method for
0.1640000000	a simple model of
0.1640000000	the global minimum of
0.1640000000	of great interest to
0.1640000000	the latent space of
0.1640000000	for community detection in
0.1640000000	in comparison with other
0.1640000000	a desired level of
0.1640000000	in areas such as
0.1640000000	much more efficient than
0.1640000000	used extensively in
0.1640000000	a formalization of
0.1640000000	different network architectures
0.1640000000	an explanation of
0.1640000000	the advance of
0.1640000000	then fed into
0.1640000000	without needing to
0.1640000000	and non rigid
0.1640000000	the possibilities of
0.1640000000	as little as
0.1640000000	a step in
0.1640000000	of diabetic retinopathy
0.1640000000	a pre specified
0.1640000000	an answer to
0.1640000000	the kernel trick
0.1640000000	the biggest challenges
0.1640000000	networks with different
0.1640000000	an individual s
0.1640000000	not hold in
0.1640000000	the learnability of
0.1640000000	set of n
0.1640000000	an investigation into
0.1640000000	these questions in
0.1640000000	to differentiate between
0.1640000000	to engage in
0.1640000000	to sample from
0.1640000000	the bottom up
0.1640000000	an improvement over
0.1640000000	a domain specific
0.1640000000	an encoding of
0.1640000000	more efficiently than
0.1640000000	a demonstration of
0.1640000000	the strength and
0.1640000000	hardness results for
0.1640000000	the two tasks
0.1640000000	better than random
0.1640000000	a more accurate
0.1640000000	algorithm and to
0.1640000000	a single pass
0.1640000000	a decrease in
0.1640000000	the qualities of
0.1640000000	the simplicity and
0.1640000000	the nervous system
0.1640000000	separability and
0.1640000000	this probability
0.1640000000	websites and
0.1640000000	fixed time
0.1640000000	other similar
0.1640000000	this shows
0.1640000000	norm as
0.1640000000	models at
0.1640000000	classified using
0.1640000000	resolution to
0.1640000000	either ignore
0.1640000000	manifold and
0.1640000000	reasoning by
0.1640000000	laws of
0.1640000000	verification and
0.1640000000	two phase
0.1640000000	resolution using
0.1640000000	solvers in
0.1640000000	synthesis and
0.1640000000	ratings and
0.1640000000	for product
0.1640000000	reward of
0.1640000000	set in
0.1640000000	too small
0.1640000000	trapped in
0.1640000000	on distributed
0.1640000000	test with
0.1640000000	for software
0.1640000000	for ensemble
0.1640000000	for managing
0.1640000000	for pose
0.1640000000	law in
0.1640000000	ml and
0.1640000000	near optimality
0.1640000000	service in
0.1640000000	the alternative
0.1640000000	the strategies
0.1640000000	service for
0.1640000000	independently from
0.1640000000	the available
0.1640000000	some problems
0.1640000000	completion under
0.1640000000	genes in
0.1640000000	diagrams and
0.1640000000	scales of
0.1640000000	gain of
0.1640000000	h s
0.1640000000	i x
0.1640000000	coding in
0.1640000000	bound to
0.1640000000	established for
0.1640000000	these drawbacks
0.1640000000	to foster
0.1640000000	raised by
0.1640000000	to results
0.1640000000	to easily
0.1640000000	these classes
0.1640000000	to online
0.1640000000	contour and
0.1640000000	elicitation of
0.1640000000	target s
0.1640000000	agents on
0.1640000000	large n
0.1640000000	evolution and
0.1640000000	and obtains
0.1640000000	and graph
0.1640000000	n x
0.1640000000	in business
0.1640000000	in improving
0.1640000000	reading of
0.1640000000	10 fold
0.1640000000	obtain better
0.1640000000	recorded from
0.1630000000	on synthetic data as well as
0.1630000000	deep convolutional neural networks to
0.1630000000	convolutional neural networks cnns in
0.1630000000	in terms of precision and
0.1630000000	recurrent neural networks rnns in
0.1630000000	convolutional neural networks cnn and
0.1630000000	convolutional neural networks cnns for
0.1630000000	a convergence rate of o
0.1630000000	such as image classification and
0.1630000000	recurrent neural networks rnns with
0.1630000000	convolutional neural networks cnns with
0.1630000000	recurrent neural networks rnns to
0.1630000000	convolutional neural networks cnns and
0.1630000000	multi armed bandit problem in
0.1630000000	natural language processing nlp and
0.1630000000	deep convolutional neural network to
0.1630000000	convolutional neural network cnn with
0.1630000000	generative adversarial networks gans to
0.1630000000	convolutional neural network cnn for
0.1630000000	able to achieve state of
0.1630000000	convolutional neural network cnn to
0.1630000000	a more general class of
0.1630000000	end to end solution
0.1630000000	end to end pipeline
0.1630000000	end to end convolutional
0.1630000000	end to end approach
0.1630000000	end to end trained
0.1630000000	a particular type of
0.1630000000	end to end manner
0.1630000000	variety of real world
0.1630000000	fields of machine learning
0.1630000000	networks for action recognition
0.1630000000	end to end cnn
0.1630000000	based person re identification
0.1630000000	significant improvement in accuracy
0.1630000000	relatively small amount of
0.1630000000	end to end differentiable
0.1630000000	end to end fashion
0.1630000000	end to end model
0.1630000000	an upper bound for
0.1630000000	an important task for
0.1630000000	end to end optimization
0.1630000000	with high accuracy and
0.1630000000	end to end neural
0.1630000000	a challenging task in
0.1630000000	a unified approach to
0.1630000000	end to end architecture
0.1630000000	optimal number of clusters
0.1630000000	an important step toward
0.1630000000	active area of research
0.1630000000	do not need to
0.1630000000	this paper reports on
0.1630000000	a certain class of
0.1630000000	this study aims to
0.1630000000	an efficient approach for
0.1630000000	the model consists of
0.1630000000	fully end to end
0.1630000000	learning for image classification
0.1630000000	balance exploration and exploitation
0.1630000000	perform end to end
0.1630000000	more general class of
0.1630000000	an effective approach for
0.1630000000	and effective way to
0.1630000000	robustness of neural networks
0.1630000000	neural network to extract
0.1630000000	source and target distributions
0.1630000000	positive and negative examples
0.1630000000	neural network for image
0.1630000000	algorithm for large scale
0.1630000000	local and global features
0.1630000000	source and target languages
0.1630000000	large number of parameters
0.1630000000	networks for object recognition
0.1630000000	a wide spectrum of
0.1630000000	applications of machine learning
0.1630000000	results on synthetic data
0.1630000000	a new perspective on
0.1630000000	a formal model for
0.1630000000	the new state of
0.1630000000	large number of variables
0.1630000000	small number of parameters
0.1630000000	large number of features
0.1630000000	branch and bound algorithm
0.1630000000	large number of classes
0.1630000000	state of art performance
0.1630000000	a new representation of
0.1630000000	state of art methods
0.1630000000	development of deep learning
0.1630000000	order of magnitude faster
0.1630000000	advances in machine learning
0.1630000000	large amounts of annotated
0.1630000000	in artificial neural networks
0.1630000000	extensive experiments on synthetic
0.1630000000	the problem of selecting
0.1630000000	for deep learning based
0.1630000000	the problem of computing
0.1630000000	a large corpus of
0.1630000000	image processing and machine
0.1630000000	extensive experiments on benchmark
0.1630000000	popular in recent years
0.1630000000	this approach leads to
0.1630000000	detection using deep learning
0.1630000000	problem in machine learning
0.1630000000	simple yet effective approach
0.1630000000	the main challenges in
0.1630000000	in object detection and
0.1630000000	simple yet effective method
0.1630000000	bag of words approach
0.1630000000	based on stochastic gradient
0.1630000000	this approach does not
0.1630000000	a mathematical model of
0.1630000000	based on deep neural
0.1630000000	based on deep convolutional
0.1630000000	mining and machine learning
0.1630000000	the method consists of
0.1630000000	number of samples required
0.1630000000	divide and conquer approach
0.1630000000	limited field of view
0.1630000000	success of deep learning
0.1630000000	a sequence of actions
0.1630000000	popular in machine learning
0.1630000000	potential of deep learning
0.1630000000	a computational framework for
0.1630000000	suitable for large scale
0.1630000000	experimental results on real
0.1630000000	evaluation on real world
0.1630000000	model end to end
0.1630000000	experimental results on public
0.1630000000	experimental results on synthetic
0.1630000000	experimental results on standard
0.1630000000	a synthetic dataset and
0.1630000000	efficient algorithm for learning
0.1630000000	quantitative and qualitative evaluations
0.1630000000	traditional bag of words
0.1630000000	quantitative and qualitative experiments
0.1630000000	qualitative and quantitative evaluation
0.1630000000	learned end to end
0.1630000000	artificial and real data
0.1630000000	and achieve state of
0.1630000000	number of iterations required
0.1630000000	an increasing interest in
0.1630000000	to extract features from
0.1630000000	a larger number of
0.1630000000	the computational burden of
0.1630000000	orders of magnitude speedup
0.1630000000	methods for large scale
0.1630000000	a specific set of
0.1630000000	a dataset consisting of
0.1630000000	framework for large scale
0.1630000000	a new paradigm for
0.1630000000	multiple levels of abstraction
0.1630000000	progress in recent years
0.1630000000	vision and image processing
0.1630000000	vision and machine learning
0.1630000000	very successful in
0.1630000000	the completeness of
0.1630000000	the feature of
0.1630000000	and time of
0.1630000000	the approach in
0.1630000000	the production of
0.1630000000	the object to
0.1630000000	the identifiability of
0.1630000000	of applications in
0.1630000000	an inventory of
0.1630000000	to arrive at
0.1630000000	and processing of
0.1630000000	and flexibility of
0.1630000000	of svm and
0.1630000000	the output and
0.1630000000	both academia and
0.1630000000	to participate in
0.1630000000	to english and
0.1630000000	the utilization of
0.1630000000	the deployment of
0.1630000000	a characterization of
0.1630000000	further improved by
0.1630000000	for optimization of
0.1630000000	the inability to
0.1630000000	the users and
0.1630000000	of knowledge in
0.1630000000	and inference in
0.1630000000	the accumulation of
0.1630000000	the target in
0.1630000000	no need for
0.1630000000	and classification in
0.1630000000	the different approaches
0.1630000000	the association between
0.1630000000	the weakness of
0.1630000000	a numerical example
0.1630000000	the exploitation of
0.1630000000	a matrix of
0.1630000000	in view of
0.1630000000	and self organizing
0.1630000000	a branch of
0.1630000000	a suite of
0.1630000000	a vocabulary of
0.1630000000	a host of
0.1630000000	a byproduct of
0.1630000000	the images and
0.1630000000	the full gradient
0.1630000000	the phenomena of
0.1630000000	for learning and
0.1630000000	the intention of
0.1630000000	a partition of
0.1630000000	3d pose of
0.1630000000	of special interest
0.1630000000	the discrepancy between
0.1630000000	a committee of
0.1630000000	the reasons behind
0.1630000000	the convergence to
0.1630000000	in place of
0.1630000000	to adapt to
0.1630000000	an improvement to
0.1630000000	a majority of
0.1630000000	to compete with
0.1630000000	the ways in
0.1630000000	without loss of
0.1630000000	the margin of
0.1630000000	a graph and
0.1630000000	a dictionary and
0.1630000000	a model in
0.1630000000	a continuum of
0.1630000000	of data to
0.1630000000	the specificity of
0.1630000000	the algorithm for
0.1630000000	of such systems
0.1630000000	the clustering performance
0.1630000000	the ensemble of
0.1630000000	made possible by
0.1630000000	a fragment of
0.1630000000	the measure of
0.1630000000	the method to
0.1630000000	and annotation of
0.1630000000	the superposition of
0.1630000000	best results for
0.1630000000	of points in
0.1630000000	a chain of
0.1630000000	in order of
0.1630000000	a relaxation of
0.1630000000	a video and
0.1630000000	the segmentation and
0.1630000000	the mismatch between
0.1630000000	the objects in
0.1630000000	the paradigm of
0.1630000000	the conjunction of
0.1630000000	to end from
0.1630000000	more stable and
0.1630000000	the consequences of
0.1630000000	the framework for
0.1630000000	the link between
0.1630000000	the equivalence of
0.1630000000	the one of
0.1630000000	for such models
0.1630000000	several advantages over
0.1630000000	both problems
0.1630000000	other clustering
0.1630000000	b and
0.1630000000	as deep
0.1630000000	s semantic
0.1630000000	novel methods
0.1630000000	s of
0.1630000000	2 1
0.1630000000	2 m
0.1630000000	as 3d
0.1630000000	if f
0.1630000000	for interval
0.1630000000	k t
0.1630000000	on graph
0.1630000000	towards understanding
0.1630000000	for safety
0.1630000000	for aspect
0.1630000000	same and
0.1630000000	for poisson
0.1630000000	w and
0.1630000000	the indoor
0.1630000000	the illuminant
0.1630000000	the mutation
0.1630000000	the atomic
0.1630000000	the bipartite
0.1630000000	the subsets
0.1630000000	the modalities
0.1630000000	the undesired
0.1630000000	the disagreement
0.1630000000	the simplification
0.1630000000	the regressor
0.1630000000	the argument
0.1630000000	the calculus
0.1630000000	the bi
0.1630000000	the broader
0.1630000000	the navigation
0.1630000000	m and
0.1630000000	m in
0.1630000000	some variables
0.1630000000	the wikipedia
0.1630000000	lexical co
0.1630000000	using domain
0.1630000000	capture of
0.1630000000	all p
0.1630000000	of default
0.1630000000	of ant
0.1630000000	of normal
0.1630000000	of root
0.1630000000	of part
0.1630000000	of consistent
0.1630000000	of mathematical
0.1630000000	of sequence
0.1630000000	of density
0.1630000000	of 100
0.1630000000	of geometric
0.1630000000	of attacks
0.1630000000	of vector
0.1630000000	clustering for
0.1630000000	of reconstruction
0.1630000000	of videos
0.1630000000	of knn
0.1630000000	of projective
0.1630000000	of control
0.1630000000	of comments
0.1630000000	of thermal
0.1630000000	more detailed
0.1630000000	practically useful
0.1630000000	to em
0.1630000000	to source
0.1630000000	to as
0.1630000000	to discard
0.1630000000	to reason
0.1630000000	these shortcomings
0.1630000000	mean in
0.1630000000	an indispensable
0.1630000000	these domains
0.1630000000	thus allowing
0.1630000000	t i
0.1630000000	t k
0.1630000000	between similar
0.1630000000	by detecting
0.1630000000	encodings for
0.1630000000	construction in
0.1630000000	clearly outperforms
0.1630000000	non iterative
0.1630000000	n for
0.1630000000	and association
0.1630000000	and matrix
0.1630000000	and quantitative
0.1630000000	and e
0.1630000000	with p
0.1630000000	video using
0.1630000000	and belief
0.1630000000	and subjective
0.1630000000	and empirically
0.1630000000	and v
0.1630000000	and concepts
0.1630000000	and analytics
0.1630000000	and computes
0.1630000000	in mri
0.1630000000	d for
0.1630000000	a bias
0.1630000000	a hashing
0.1630000000	a moderate
0.1630000000	in total
0.1630000000	in n
0.1630000000	in group
0.1630000000	in d
0.1630000000	a rank
0.1630000000	a leading
0.1630000000	like bayesian
0.1630000000	d k
0.1630000000	or between
0.1630000000	a music
0.1630000000	r k
0.1630000000	r i
0.1630000000	monocular 3d
0.1620000000	for representing and reasoning about
0.1620000000	for end to end
0.1620000000	of machine learning and
0.1620000000	an experimental comparison of
0.1620000000	at multiple levels of
0.1620000000	a simple approach to
0.1620000000	the problem of generating
0.1620000000	a vast number of
0.1620000000	the ability to perform
0.1620000000	the learning process and
0.1620000000	additional information such as
0.1620000000	experimental results on two
0.1620000000	methods in terms of
0.1620000000	the first application of
0.1620000000	the proposed algorithm with
0.1620000000	in fields such as
0.1620000000	the task of identifying
0.1620000000	able to generalize to
0.1620000000	these two types of
0.1620000000	topic models to
0.1620000000	used to produce
0.1620000000	the approach to
0.1620000000	the plausibility of
0.1620000000	proposed method over
0.1620000000	the algorithms in
0.1620000000	a network for
0.1620000000	the output distribution
0.1620000000	much attention in
0.1620000000	of features in
0.1620000000	of edges in
0.1620000000	the dataset and
0.1620000000	a given input
0.1620000000	the signal to
0.1620000000	of network structure
0.1620000000	time series of
0.1620000000	the error in
0.1620000000	number of layers
0.1620000000	of actions in
0.1620000000	the results and
0.1620000000	and only if
0.1620000000	of visual and
0.1620000000	and clustering of
0.1620000000	of methods and
0.1620000000	the gradient in
0.1620000000	the phenomenon of
0.1620000000	the findings of
0.1620000000	the classification and
0.1620000000	domain knowledge to
0.1620000000	based evaluation of
0.1620000000	the environment to
0.1620000000	the background of
0.1620000000	the parameters in
0.1620000000	the most of
0.1620000000	instance segmentation and
0.1620000000	in applications such
0.1620000000	of models and
0.1620000000	based on two
0.1620000000	the regularization parameters
0.1620000000	the performance and
0.1620000000	training data from
0.1620000000	the method in
0.1620000000	the system and
0.1620000000	in constant time
0.1620000000	the bayesian optimization
0.1620000000	the real and
0.1620000000	the network with
0.1620000000	the system to
0.1620000000	for users to
0.1620000000	the words of
0.1620000000	a stand alone
0.1620000000	f measure and
0.1620000000	bayesian networks to
0.1620000000	the sharing of
0.1620000000	the drawbacks of
0.1620000000	off policy training
0.1620000000	action recognition in
0.1620000000	the art convolutional
0.1620000000	joint distribution of
0.1620000000	the art model
0.1620000000	and human computer
0.1620000000	the tuning of
0.1620000000	the motivation for
0.1620000000	the model from
0.1620000000	the model as
0.1620000000	the art of
0.1620000000	factors such as
0.1620000000	algorithm as
0.1620000000	desirable to
0.1620000000	this view
0.1620000000	this combination
0.1620000000	this requirement
0.1620000000	still limited
0.1620000000	new ideas
0.1620000000	then provide
0.1620000000	applications for
0.1620000000	coverage and
0.1620000000	network as
0.1620000000	requiring only
0.1620000000	3d faces
0.1620000000	different features
0.1620000000	two categories
0.1620000000	determine if
0.1620000000	assumptions and
0.1620000000	descriptions and
0.1620000000	exists in
0.1620000000	for mining
0.1620000000	for nonlinear
0.1620000000	from d
0.1620000000	modeling with
0.1620000000	averaging over
0.1620000000	deformable part
0.1620000000	the universe
0.1620000000	the modern
0.1620000000	relevance and
0.1620000000	the identified
0.1620000000	some common
0.1620000000	psychology and
0.1620000000	the seen
0.1620000000	m with
0.1620000000	the collective
0.1620000000	the detailed
0.1620000000	m best
0.1620000000	adapted from
0.1620000000	units in
0.1620000000	units and
0.1620000000	thorough numerical
0.1620000000	very costly
0.1620000000	of selecting
0.1620000000	terms and
0.1620000000	of formal
0.1620000000	member of
0.1620000000	tools in
0.1620000000	adopted by
0.1620000000	to 1
0.1620000000	to harness
0.1620000000	an expression
0.1620000000	to return
0.1620000000	to attack
0.1620000000	generation using
0.1620000000	an asymmetric
0.1620000000	to d
0.1620000000	by testing
0.1620000000	also introduces
0.1620000000	purpose of
0.1620000000	by sampling
0.1620000000	by associating
0.1620000000	introduced for
0.1620000000	leading cause
0.1620000000	critical in
0.1620000000	and camera
0.1620000000	and experimentally
0.1620000000	and intuitive
0.1620000000	and per
0.1620000000	and analyzed
0.1620000000	solved via
0.1620000000	and design
0.1620000000	part 1
0.1620000000	a plausible
0.1620000000	a detection
0.1620000000	in theory
0.1620000000	settings and
0.1620000000	a propositional
0.1620000000	a slightly
0.1620000000	a pretrained
0.1620000000	distinguished from
0.1620000000	without supervision
0.1620000000	a perfect
0.1620000000	a detector
0.1620000000	a scalar
0.1620000000	handling of
0.1610000000	the number of variables and
0.1610000000	and in terms of
0.1610000000	time in order to
0.1610000000	the data distribution and
0.1610000000	mean absolute percentage error
0.1610000000	real world data and
0.1610000000	and efficient algorithms for
0.1610000000	a set of time
0.1610000000	the neural network to
0.1610000000	a set of well
0.1610000000	of large numbers of
0.1610000000	the data set and
0.1610000000	the proposed model in
0.1610000000	of deep learning for
0.1610000000	the input space to
0.1610000000	the proposed algorithm and
0.1610000000	and hidden markov models
0.1610000000	the training data in
0.1610000000	with different levels of
0.1610000000	metrics such as
0.1610000000	of mathcal o
0.1610000000	the data by
0.1610000000	the object and
0.1610000000	and degree of
0.1610000000	the dictionary and
0.1610000000	the object in
0.1610000000	of text in
0.1610000000	of queries and
0.1610000000	a tree of
0.1610000000	of ai and
0.1610000000	10 dataset and
0.1610000000	the data for
0.1610000000	the algorithms to
0.1610000000	the algorithms and
0.1610000000	the approach and
0.1610000000	the data in
0.1610000000	the data from
0.1610000000	the data of
0.1610000000	the data to
0.1610000000	learning algorithm in
0.1610000000	cnn architecture and
0.1610000000	of images to
0.1610000000	an image by
0.1610000000	to decision making
0.1610000000	a document and
0.1610000000	the robot and
0.1610000000	the resulting network
0.1610000000	the information to
0.1610000000	newton method for
0.1610000000	the information on
0.1610000000	of missing data
0.1610000000	feature vectors of
0.1610000000	the detection and
0.1610000000	the language and
0.1610000000	the information system
0.1610000000	the tasks and
0.1610000000	1 1 n
0.1610000000	the kernel and
0.1610000000	of fuzzy logic
0.1610000000	the image to
0.1610000000	to learn and
0.1610000000	value function of
0.1610000000	a scheme to
0.1610000000	this model in
0.1610000000	the memory and
0.1610000000	the image by
0.1610000000	the image as
0.1610000000	the image s
0.1610000000	the group of
0.1610000000	the image and
0.1610000000	the image in
0.1610000000	the image of
0.1610000000	of knowledge and
0.1610000000	decision processes with
0.1610000000	of real and
0.1610000000	time series by
0.1610000000	of types of
0.1610000000	and segmentation in
0.1610000000	the loss and
0.1610000000	the corpus and
0.1610000000	the target and
0.1610000000	the target of
0.1610000000	the learner to
0.1610000000	of multi agent
0.1610000000	of 3 d
0.1610000000	of methods for
0.1610000000	the images of
0.1610000000	the results in
0.1610000000	the other for
0.1610000000	for learning of
0.1610000000	in parallel and
0.1610000000	a matrix and
0.1610000000	the user and
0.1610000000	the generator to
0.1610000000	k nn and
0.1610000000	in training and
0.1610000000	2 log n
0.1610000000	the optimal convergence
0.1610000000	the knowledge in
0.1610000000	the images in
0.1610000000	the images from
0.1610000000	the query and
0.1610000000	the search and
0.1610000000	for generation of
0.1610000000	of planning in
0.1610000000	to o n
0.1610000000	of statistical models
0.1610000000	of x and
0.1610000000	of constraints and
0.1610000000	and topic models
0.1610000000	the state and
0.1610000000	and learning from
0.1610000000	of o n
0.1610000000	1 bit per
0.1610000000	a word in
0.1610000000	of clusters of
0.1610000000	the models of
0.1610000000	the parameters to
0.1610000000	evolutionary algorithms for
0.1610000000	the human s
0.1610000000	to improve detection
0.1610000000	the models and
0.1610000000	l 1 and
0.1610000000	the function f
0.1610000000	the learned network
0.1610000000	the space and
0.1610000000	the environment by
0.1610000000	the human and
0.1610000000	the process and
0.1610000000	the process to
0.1610000000	the models in
0.1610000000	the models to
0.1610000000	the models on
0.1610000000	the visual and
0.1610000000	for top k
0.1610000000	of data in
0.1610000000	of parameters of
0.1610000000	a model and
0.1610000000	of words to
0.1610000000	of nodes in
0.1610000000	a policy and
0.1610000000	a domain expert
0.1610000000	time o n
0.1610000000	1 2 and
0.1610000000	theoretical analysis of
0.1610000000	the non zero
0.1610000000	this data to
0.1610000000	a team of
0.1610000000	a text to
0.1610000000	the context and
0.1610000000	the recognition and
0.1610000000	the learning and
0.1610000000	the algorithm in
0.1610000000	the algorithm with
0.1610000000	the algorithm to
0.1610000000	the algorithm and
0.1610000000	the algorithm of
0.1610000000	the proposed non
0.1610000000	work well with
0.1610000000	the problem and
0.1610000000	the system in
0.1610000000	of belief in
0.1610000000	of p and
0.1610000000	the manifold of
0.1610000000	side information and
0.1610000000	of number of
0.1610000000	the scene and
0.1610000000	the action and
0.1610000000	the network and
0.1610000000	the network to
0.1610000000	the system with
0.1610000000	the methods to
0.1610000000	the branch and
0.1610000000	the features in
0.1610000000	the features to
0.1610000000	the matrix of
0.1610000000	the network from
0.1610000000	the network for
0.1610000000	the network in
0.1610000000	the method for
0.1610000000	the clustering of
0.1610000000	the problem to
0.1610000000	the problem in
0.1610000000	the matching of
0.1610000000	the dual of
0.1610000000	the system for
0.1610000000	for image and
0.1610000000	for clustering in
0.1610000000	this algorithm and
0.1610000000	in learning and
0.1610000000	the words used
0.1610000000	than previous methods
0.1610000000	the text and
0.1610000000	k log n
0.1610000000	the parameter less
0.1610000000	for retrieval of
0.1610000000	the question and
0.1610000000	probabilistic inference in
0.1610000000	the parameter of
0.1610000000	a convolutional layer
0.1610000000	of agents and
0.1610000000	the dynamic and
0.1610000000	a human and
0.1610000000	and o n
0.1610000000	the text in
0.1610000000	and mathcal o
0.1610000000	the tensor product
0.1610000000	and usefulness of
0.1610000000	the sequence to
0.1610000000	the classifier to
0.1610000000	the world and
0.1610000000	the weights and
0.1610000000	the video and
0.1610000000	the text to
0.1610000000	the domain and
0.1610000000	of sampling from
0.1610000000	of events in
0.1610000000	of algorithms in
0.1610000000	the model for
0.1610000000	the model on
0.1610000000	of objects with
0.1610000000	and on real
0.1610000000	neural network and
0.1610000000	and models for
0.1610000000	and point out
0.1610000000	and results of
0.1610000000	of objects and
0.1610000000	of concepts in
0.1610000000	of objects or
0.1610000000	and features of
0.1610000000	the model with
0.1610000000	the best and
0.1610000000	the model by
0.1610000000	the model of
0.1610000000	the model in
0.1610000000	the graph and
0.1610000000	the graph of
0.1610000000	facial expressions of
0.1610000000	other related
0.1610000000	new time
0.1610000000	this graph
0.1610000000	v of
0.1610000000	v in
0.1610000000	s n
0.1610000000	2 p
0.1610000000	2 n
0.1610000000	s x
0.1610000000	as p
0.1610000000	2 with
0.1610000000	p to
0.1610000000	p with
0.1610000000	2 s
0.1610000000	2 k
0.1610000000	as r
0.1610000000	s k
0.1610000000	as t
0.1610000000	p in
0.1610000000	applicability in
0.1610000000	p of
0.1610000000	k of
0.1610000000	3 n
0.1610000000	on x
0.1610000000	many challenges
0.1610000000	k for
0.1610000000	for survival
0.1610000000	for m
0.1610000000	k with
0.1610000000	for x
0.1610000000	for morphological
0.1610000000	k k
0.1610000000	k by
0.1610000000	for handwritten
0.1610000000	many to
0.1610000000	on part
0.1610000000	on s
0.1610000000	for l
0.1610000000	from p
0.1610000000	for s
0.1610000000	from x
0.1610000000	from ct
0.1610000000	for agents
0.1610000000	on d
0.1610000000	on stability
0.1610000000	for d
0.1610000000	w in
0.1610000000	x with
0.1610000000	satisfies certain
0.1610000000	x from
0.1610000000	x to
0.1610000000	x of
0.1610000000	x in
0.1610000000	the x
0.1610000000	the on
0.1610000000	the representative
0.1610000000	the day
0.1610000000	the all
0.1610000000	x as
0.1610000000	y and
0.1610000000	the and
0.1610000000	the backward
0.1610000000	the t
0.1610000000	the in
0.1610000000	the fire
0.1610000000	the s
0.1610000000	the twenty
0.1610000000	c of
0.1610000000	c in
0.1610000000	the european
0.1610000000	the forest
0.1610000000	the g
0.1610000000	the candidates
0.1610000000	system combination
0.1610000000	all n
0.1610000000	all k
0.1610000000	of effective
0.1610000000	of dnn
0.1610000000	of limited
0.1610000000	of system
0.1610000000	against one
0.1610000000	i and
0.1610000000	of e
0.1610000000	of narrative
0.1610000000	of achieving
0.1610000000	h and
0.1610000000	of basic
0.1610000000	of w
0.1610000000	of heterogeneous
0.1610000000	of q
0.1610000000	of d
0.1610000000	of o
0.1610000000	of t
0.1610000000	of in
0.1610000000	of of
0.1610000000	i in
0.1610000000	of and
0.1610000000	of as
0.1610000000	of supervised
0.1610000000	of sequences
0.1610000000	of h
0.1610000000	of v
0.1610000000	computer systems
0.1610000000	of y
0.1610000000	propagated through
0.1610000000	u and
0.1610000000	to b
0.1610000000	g and
0.1610000000	to classical
0.1610000000	to k
0.1610000000	to f
0.1610000000	to spike
0.1610000000	to system
0.1610000000	to x
0.1610000000	to in
0.1610000000	to p
0.1610000000	to r
0.1610000000	to and
0.1610000000	to allocate
0.1610000000	g to
0.1610000000	f s
0.1610000000	f in
0.1610000000	t of
0.1610000000	t and
0.1610000000	t to
0.1610000000	t for
0.1610000000	t with
0.1610000000	t in
0.1610000000	between x
0.1610000000	time course
0.1610000000	by h
0.1610000000	also introduced
0.1610000000	by p
0.1610000000	t on
0.1610000000	by r
0.1610000000	by d
0.1610000000	and track
0.1610000000	n to
0.1610000000	n by
0.1610000000	and k
0.1610000000	n d
0.1610000000	n time
0.1610000000	n with
0.1610000000	and o
0.1610000000	n in
0.1610000000	n or
0.1610000000	and look
0.1610000000	and and
0.1610000000	and x
0.1610000000	and evaluates
0.1610000000	and y
0.1610000000	and s
0.1610000000	and of
0.1610000000	bird s
0.1610000000	and p
0.1610000000	and z
0.1610000000	and easy
0.1610000000	with in
0.1610000000	n n
0.1610000000	and n
0.1610000000	with r
0.1610000000	with l
0.1610000000	indicators of
0.1610000000	n of
0.1610000000	object or
0.1610000000	1 o
0.1610000000	in for
0.1610000000	in k
0.1610000000	in m
0.1610000000	a for
0.1610000000	a in
0.1610000000	a r
0.1610000000	d of
0.1610000000	a biological
0.1610000000	a x
0.1610000000	in v
0.1610000000	a with
0.1610000000	in t
0.1610000000	in and
0.1610000000	1 p
0.1610000000	a n
0.1610000000	d n
0.1610000000	in to
0.1610000000	a to
0.1610000000	d in
0.1610000000	a t
0.1610000000	a f
0.1610000000	in p
0.1610000000	a i
0.1610000000	1 k
0.1610000000	1 x
0.1610000000	d to
0.1610000000	recorded in
0.1600000000	a wide range of state of
0.1600000000	the art performance in terms of
0.1600000000	a necessary and sufficient condition for
0.1600000000	a variety of applications such as
0.1600000000	the art methods in terms of
0.1600000000	the art algorithms in terms of
0.1600000000	a new approach based on
0.1600000000	better performance than state of
0.1600000000	in contrast to prior work
0.1600000000	on synthetic as well as
0.1600000000	the syntax and semantics of
0.1600000000	the pros and cons of
0.1600000000	the accuracy and robustness of
0.1600000000	a number of well known
0.1600000000	in order to deal with
0.1600000000	a number of state of
0.1600000000	in terms of number of
0.1600000000	the advantages and disadvantages of
0.1600000000	a reasonable amount of time
0.1600000000	the accuracy and efficiency of
0.1600000000	a new method based on
0.1600000000	in contrast to previous work
0.1600000000	the presence or absence of
0.1600000000	the presence of noise and
0.1600000000	in order to do so
0.1600000000	in many fields such as
0.1600000000	the art methods such as
0.1600000000	or better than state of
0.1600000000	the performance of state of
0.1600000000	at least as good as
0.1600000000	the proposed method not only
0.1600000000	computer vision tasks such as
0.1600000000	in terms of speed and
0.1600000000	a new algorithm based on
0.1600000000	a novel method based on
0.1600000000	in comparison to state of
0.1600000000	a novel approach based on
0.1600000000	in computer vision due to
0.1600000000	in comparison with state of
0.1600000000	as close as possible to
0.1600000000	a relatively small number of
0.1600000000	a lot of interest in
0.1600000000	a regret bound of o
0.1600000000	in recent years due to
0.1600000000	such as object recognition and
0.1600000000	the design and analysis of
0.1600000000	such as object detection and
0.1600000000	under consideration for acceptance in
0.1600000000	with respect to state of
0.1600000000	a huge number of
0.1600000000	a challenge due to
0.1600000000	a high number of
0.1600000000	a new way of
0.1600000000	a theoretical basis for
0.1600000000	a new generation of
0.1600000000	a convex combination of
0.1600000000	for further research in
0.1600000000	a weighted sum of
0.1600000000	a surge of interest
0.1600000000	the practical performance of
0.1600000000	the wide variety of
0.1600000000	the latent structure of
0.1600000000	an overall accuracy of
0.1600000000	the overall accuracy of
0.1600000000	a limited set of
0.1600000000	a simplified version of
0.1600000000	a systematic study of
0.1600000000	an upper bound of
0.1600000000	the convergence speed of
0.1600000000	the special structure of
0.1600000000	a new version of
0.1600000000	a formal definition of
0.1600000000	the current version of
0.1600000000	an efficient implementation of
0.1600000000	the major problems in
0.1600000000	a unified view of
0.1600000000	an important issue in
0.1600000000	an important class of
0.1600000000	a new variant of
0.1600000000	a single set of
0.1600000000	the next generation of
0.1600000000	an important step in
0.1600000000	a new kind of
0.1600000000	a flexible framework for
0.1600000000	a crucial step in
0.1600000000	a brief introduction to
0.1600000000	a brief overview of
0.1600000000	the temporal structure of
0.1600000000	the representation power of
0.1600000000	an important area of
0.1600000000	do not account for
0.1600000000	this paper inspired by
0.1600000000	the representations learned by
0.1600000000	and thus do not
0.1600000000	a novel interpretation of
0.1600000000	the main drawback of
0.1600000000	an important feature of
0.1600000000	a broad family of
0.1600000000	this paper based on
0.1600000000	the main aim of
0.1600000000	do not appear in
0.1600000000	an empirical analysis of
0.1600000000	an essential part of
0.1600000000	the large volume of
0.1600000000	a thorough analysis of
0.1600000000	the largest publicly available
0.1600000000	the small number of
0.1600000000	the geometric structure of
0.1600000000	an unknown number of
0.1600000000	with probability at least
0.1600000000	in many areas of
0.1600000000	due to lack of
0.1600000000	rather than relying on
0.1600000000	do not scale to
0.1600000000	an extensive evaluation of
0.1600000000	a novel formulation of
0.1600000000	the main advantages of
0.1600000000	a key feature of
0.1600000000	an extensive analysis of
0.1600000000	a novel application of
0.1600000000	the information contained in
0.1600000000	the increasing availability of
0.1600000000	a novel set of
0.1600000000	a novel solution to
0.1600000000	the first and second
0.1600000000	do not scale well
0.1600000000	the hyper parameters of
0.1600000000	a fundamental task in
0.1600000000	on three publicly available
0.1600000000	2017 shared task on
0.1600000000	a novel extension of
0.1600000000	a smaller number of
0.1600000000	the rademacher complexity of
0.1600000000	an important property of
0.1600000000	an important topic in
0.1600000000	due to changes in
0.1600000000	the art algorithm for
0.1600000000	in practice due to
0.1600000000	a wide array of
0.1600000000	a comprehensive evaluation of
0.1600000000	a comprehensive survey of
0.1600000000	a formal framework for
0.1600000000	a significant reduction of
0.1600000000	the early stages of
0.1600000000	to achieve real time
0.1600000000	the statistical properties of
0.1600000000	an average accuracy of
0.1600000000	a significant number of
0.1600000000	a reduced number of
0.1600000000	the same order of
0.1600000000	the posterior probability of
0.1600000000	a theoretical justification for
0.1600000000	the emerging field of
0.1600000000	a significant reduction in
0.1600000000	the weighted sum of
0.1600000000	the relative merits of
0.1600000000	a natural generalization of
0.1600000000	a significant amount of
0.1600000000	the same order as
0.1600000000	a special class of
0.1600000000	a formal description of
0.1600000000	the paper deals with
0.1600000000	the relative importance of
0.1600000000	the challenges associated with
0.1600000000	an increasing amount of
0.1600000000	a brief description of
0.1600000000	the paper concludes with
0.1600000000	a comprehensive analysis of
0.1600000000	the region of interest
0.1600000000	a general methodology for
0.1600000000	the improved performance of
0.1600000000	a comprehensive overview of
0.1600000000	the recent work of
0.1600000000	a by product of
0.1600000000	the increasing popularity of
0.1600000000	of interest such as
0.1600000000	a different set of
0.1600000000	a substantial amount of
0.1600000000	a popular approach to
0.1600000000	a simple variant of
0.1600000000	a priori knowledge of
0.1600000000	a common problem in
0.1600000000	a central problem in
0.1600000000	a simple modification of
0.1600000000	does not suffer from
0.1600000000	the increasing number of
0.1600000000	does not lead to
0.1600000000	a minimal number of
0.1600000000	in reinforcement learning and
0.1600000000	the proposed method using
0.1600000000	a small portion of
0.1600000000	a large range of
0.1600000000	a popular tool for
0.1600000000	the expected number of
0.1600000000	a good balance between
0.1600000000	the excellent performance of
0.1600000000	the specific case of
0.1600000000	the time required for
0.1600000000	an arbitrary number of
0.1600000000	the spatial structure of
0.1600000000	a key problem in
0.1600000000	a powerful framework for
0.1600000000	a statistical analysis of
0.1600000000	the global structure of
0.1600000000	a pivotal role in
0.1600000000	the empirical performance of
0.1600000000	the rapid growth of
0.1600000000	a growing number of
0.1600000000	deep neural networks using
0.1600000000	a sufficient condition for
0.1600000000	a considerable amount of
0.1600000000	a lower bound for
0.1600000000	do not rely on
0.1600000000	a large database of
0.1600000000	the same level of
0.1600000000	a broader class of
0.1600000000	a large fraction of
0.1600000000	the automatic segmentation of
0.1600000000	the information provided by
0.1600000000	the intrinsic dimension of
0.1600000000	this assumption does not
0.1600000000	the generalization capability of
0.1600000000	the square root of
0.1600000000	a necessary condition for
0.1600000000	an improved version of
0.1600000000	a broad set of
0.1600000000	this paper contributes to
0.1600000000	recurrent neural network with
0.1600000000	the energy efficiency of
0.1600000000	the same set of
0.1600000000	the standard deviation of
0.1600000000	known to suffer from
0.1600000000	a wider range of
0.1600000000	the average accuracy of
0.1600000000	a critical role in
0.1600000000	an essential step in
0.1600000000	an essential role in
0.1600000000	a mathematical model for
0.1600000000	the high complexity of
0.1600000000	the challenging task of
0.1600000000	to keep track of
0.1600000000	a standard approach to
0.1600000000	a new form of
0.1600000000	a considerable number of
0.1600000000	a rich source of
0.1600000000	the desirable properties of
0.1600000000	the proposed model to
0.1600000000	a stochastic version of
0.1600000000	a generalized version of
0.1600000000	a diverse range of
0.1600000000	the topological properties of
0.1600000000	the high degree of
0.1600000000	at various levels of
0.1600000000	a rich class of
0.1600000000	a good approximation of
0.1600000000	a sufficient number of
0.1600000000	a major problem in
0.1600000000	the prior state of
0.1600000000	the small size of
0.1600000000	take full advantage of
0.1600000000	a novel combination of
0.1600000000	the intrinsic structure of
0.1600000000	a large part of
0.1600000000	a qualitative analysis of
0.1600000000	a common set of
0.1600000000	the predictive power of
0.1600000000	the internal states of
0.1600000000	the predictive accuracy of
0.1600000000	the discriminative ability of
0.1600000000	a given level of
0.1600000000	a small part of
0.1600000000	a fixed number of
0.1600000000	the riemannian geometry of
0.1600000000	a particular case of
0.1600000000	a complete characterization of
0.1600000000	a starting point for
0.1600000000	a comprehensive review of
0.1600000000	of great interest in
0.1600000000	much more robust to
0.1600000000	computer vision due to
0.1600000000	a viable alternative to
0.1600000000	a natural extension of
0.1600000000	a huge amount of
0.1600000000	due in part to
0.1600000000	the visual quality of
0.1600000000	this work focuses on
0.1600000000	a complete set of
0.1600000000	the limited amount of
0.1600000000	a new definition of
0.1600000000	the first polynomial time
0.1600000000	the central idea of
0.1600000000	the limited number of
0.1600000000	an extended version of
0.1600000000	a particular class of
0.1600000000	a robust method for
0.1600000000	a novel analysis of
0.1600000000	instead of relying on
0.1600000000	a certain number of
0.1600000000	a fixed set of
0.1600000000	to transfer knowledge from
0.1600000000	the great potential of
0.1600000000	the leading causes of
0.1600000000	a great success in
0.1600000000	a decision support system
0.1600000000	the work presented in
0.1600000000	the promising performance of
0.1600000000	a powerful method for
0.1600000000	the building blocks of
0.1600000000	a novel variant of
0.1600000000	a ranked list of
0.1600000000	a computational approach to
0.1600000000	a large family of
0.1600000000	the work presented here
0.1600000000	the game of go
0.1600000000	a weighted combination of
0.1600000000	the minimal number of
0.1600000000	the high dimensionality of
0.1600000000	the automatic identification of
0.1600000000	a large portion of
0.1600000000	a constant number of
0.1600000000	in part due to
0.1600000000	a large body of
0.1600000000	a stationary point of
0.1600000000	the great success of
0.1600000000	the left and right
0.1600000000	the semantic content of
0.1600000000	a hot topic in
0.1600000000	a novel type of
0.1600000000	a new notion of
0.1600000000	the internal structure of
0.1600000000	a novel family of
0.1600000000	a major role in
0.1600000000	a one to one
0.1600000000	an essential component of
0.1600000000	the hidden layers of
0.1600000000	the training data to
0.1600000000	a relative improvement of
0.1600000000	a fundamental role in
0.1600000000	an increasing number of
0.1600000000	the huge number of
0.1600000000	the inner workings of
0.1600000000	also present results on
0.1600000000	an f measure of
0.1600000000	an empirical comparison of
0.1600000000	the main feature of
0.1600000000	do not perform well
0.1600000000	do not depend on
0.1600000000	the training data for
0.1600000000	the same accuracy as
0.1600000000	do not suffer from
0.1600000000	to gain insight into
0.1600000000	the vast amount of
0.1600000000	a variable number of
0.1600000000	well studied problem in
0.1600000000	a general theory of
0.1600000000	the leave one out
0.1600000000	the wide range of
0.1600000000	make full use of
0.1600000000	a popular method for
0.1600000000	the overall quality of
0.1600000000	an exponential number of
0.1600000000	the hierarchical structure of
0.1600000000	a new formulation of
0.1600000000	a convex relaxation of
0.1600000000	a fast algorithm for
0.1600000000	co located with
0.1600000000	the origins of
0.1600000000	in memory and
0.1600000000	the problems in
0.1600000000	an equivalence between
0.1600000000	the dependence between
0.1600000000	the reach of
0.1600000000	the foundation of
0.1600000000	the tightness of
0.1600000000	a discussion on
0.1600000000	the logarithm of
0.1600000000	an outline of
0.1600000000	a mix of
0.1600000000	the data with
0.1600000000	and versatility of
0.1600000000	in line with
0.1600000000	the policy and
0.1600000000	the granularity of
0.1600000000	the tendency of
0.1600000000	the approach of
0.1600000000	the advancement of
0.1600000000	the proliferation of
0.1600000000	the informativeness of
0.1600000000	the winner of
0.1600000000	the safety of
0.1600000000	of texts and
0.1600000000	the information of
0.1600000000	of classes in
0.1600000000	non existence of
0.1600000000	the radius of
0.1600000000	and methods of
0.1600000000	and english to
0.1600000000	given rise to
0.1600000000	a reduction from
0.1600000000	a generalisation of
0.1600000000	methods for solving
0.1600000000	the arrival of
0.1600000000	the head and
0.1600000000	the philosophy of
0.1600000000	the chance of
0.1600000000	the interplay of
0.1600000000	the solution for
0.1600000000	of rules and
0.1600000000	for classes of
0.1600000000	the purposes of
0.1600000000	easily generalized to
0.1600000000	a better and
0.1600000000	the regularity of
0.1600000000	a stack of
0.1600000000	the competitiveness of
0.1600000000	the compatibility of
0.1600000000	the appropriateness of
0.1600000000	the objective to
0.1600000000	in favor of
0.1600000000	the first in
0.1600000000	of features and
0.1600000000	in spirit to
0.1600000000	the functionality of
0.1600000000	algorithm performs well
0.1600000000	a guideline for
0.1600000000	learning and show
0.1600000000	the door to
0.1600000000	the manner in
0.1600000000	the time and
0.1600000000	the first of
0.1600000000	the first level
0.1600000000	the image or
0.1600000000	the web and
0.1600000000	the memory of
0.1600000000	the dataset of
0.1600000000	the shape and
0.1600000000	for future work
0.1600000000	both appearance and
0.1600000000	the goodness of
0.1600000000	and used in
0.1600000000	the noise and
0.1600000000	the scarcity of
0.1600000000	the sources of
0.1600000000	the abundance of
0.1600000000	the merit of
0.1600000000	the usability of
0.1600000000	every pixel in
0.1600000000	more accurately than
0.1600000000	of noise in
0.1600000000	of actions and
0.1600000000	a distribution of
0.1600000000	the severity of
0.1600000000	a query and
0.1600000000	the wealth of
0.1600000000	on held out
0.1600000000	a tutorial on
0.1600000000	for models with
0.1600000000	a member of
0.1600000000	the fidelity of
0.1600000000	the progression of
0.1600000000	the interface between
0.1600000000	the distinction between
0.1600000000	the instability of
0.1600000000	the results for
0.1600000000	the results to
0.1600000000	the weaknesses of
0.1600000000	the variability of
0.1600000000	the roles of
0.1600000000	of cnns and
0.1600000000	the era of
0.1600000000	an explosion of
0.1600000000	an illustrative example
0.1600000000	a word and
0.1600000000	a word by
0.1600000000	as shown by
0.1600000000	in front of
0.1600000000	as accurate as
0.1600000000	from o n
0.1600000000	the uniqueness of
0.1600000000	the movement of
0.1600000000	the function of
0.1600000000	the function to
0.1600000000	the adequacy of
0.1600000000	as few as
0.1600000000	as evidenced by
0.1600000000	3d model of
0.1600000000	as small as
0.1600000000	of parameters in
0.1600000000	a modification to
0.1600000000	the quest for
0.1600000000	the analysis to
0.1600000000	the proposed cnn
0.1600000000	a product of
0.1600000000	a held out
0.1600000000	in so doing
0.1600000000	a mechanism for
0.1600000000	the ubiquity of
0.1600000000	0 1 d
0.1600000000	in lieu of
0.1600000000	the generative and
0.1600000000	the syntax of
0.1600000000	in favour of
0.1600000000	a graph representation
0.1600000000	a prerequisite for
0.1600000000	in accordance with
0.1600000000	the release of
0.1600000000	the maintenance of
0.1600000000	the generalizability of
0.1600000000	the sake of
0.1600000000	the soundness and
0.1600000000	the performance in
0.1600000000	the algorithm on
0.1600000000	the transferability of
0.1600000000	the proposed two
0.1600000000	for artificial neural
0.1600000000	as efficient as
0.1600000000	of tools for
0.1600000000	the functioning of
0.1600000000	within and across
0.1600000000	the employment of
0.1600000000	a compromise between
0.1600000000	the methods of
0.1600000000	as important as
0.1600000000	by virtue of
0.1600000000	training data for
0.1600000000	the generality and
0.1600000000	the onset of
0.1600000000	the intent of
0.1600000000	the vulnerability of
0.1600000000	the lens of
0.1600000000	the method also
0.1600000000	the problem with
0.1600000000	the system as
0.1600000000	for two different
0.1600000000	as fast as
0.1600000000	a couple of
0.1600000000	with regards to
0.1600000000	the richness of
0.1600000000	the guidance of
0.1600000000	a matter of
0.1600000000	and generality of
0.1600000000	with use of
0.1600000000	the automation of
0.1600000000	the vicinity of
0.1600000000	the n best
0.1600000000	the words and
0.1600000000	to end on
0.1600000000	an array of
0.1600000000	proposed to address
0.1600000000	the roots of
0.1600000000	to data from
0.1600000000	the supervision of
0.1600000000	the framework in
0.1600000000	with little or
0.1600000000	and geometry of
0.1600000000	better performances than
0.1600000000	the concatenation of
0.1600000000	the heterogeneity of
0.1600000000	the progress of
0.1600000000	the provision of
0.1600000000	v and
0.1600000000	s r
0.1600000000	less likely
0.1600000000	as and
0.1600000000	image as
0.1600000000	always exists
0.1600000000	two sided
0.1600000000	as from
0.1600000000	than n
0.1600000000	2 t
0.1600000000	than k
0.1600000000	s d
0.1600000000	stage by
0.1600000000	recordings and
0.1600000000	mining system
0.1600000000	svm in
0.1600000000	for r
0.1600000000	traffic and
0.1600000000	for k
0.1600000000	on t
0.1600000000	each subproblem
0.1600000000	for n
0.1600000000	y in
0.1600000000	already exist
0.1600000000	the q
0.1600000000	the within
0.1600000000	the dm
0.1600000000	the colour
0.1600000000	theory from
0.1600000000	the interval
0.1600000000	m to
0.1600000000	using o
0.1600000000	semantics with
0.1600000000	such non
0.1600000000	conveyed by
0.1600000000	of go
0.1600000000	of side
0.1600000000	of representation
0.1600000000	self occlusions
0.1600000000	self contained
0.1600000000	to n
0.1600000000	mean discrepancy
0.1600000000	noise with
0.1600000000	challenge 2015
0.1600000000	these criteria
0.1600000000	adaptation from
0.1600000000	t s
0.1600000000	rnns on
0.1600000000	f of
0.1600000000	patches in
0.1600000000	with d
0.1600000000	and from
0.1600000000	and between
0.1600000000	l and
0.1600000000	and h
0.1600000000	and given
0.1600000000	four fold
0.1600000000	a by
0.1600000000	a p
0.1600000000	a q
0.1600000000	1 l
0.1600000000	imaging for
0.1600000000	in classification
0.1600000000	j in
0.1590000000	the accuracy of classification
0.1590000000	the results obtained in
0.1590000000	a set of nodes
0.1590000000	an important problem with
0.1590000000	the results obtained with
0.1590000000	the problem of active
0.1590000000	the problem of multi
0.1590000000	deep neural networks via
0.1590000000	a new dataset for
0.1590000000	the amount of memory
0.1590000000	deep neural network to
0.1590000000	the number of labeled
0.1590000000	the number of vertices
0.1590000000	propose to employ
0.1590000000	of generative models
0.1590000000	the agents to
0.1590000000	semantic similarity between
0.1590000000	one hand and
0.1590000000	of k means
0.1590000000	labeled data in
0.1590000000	gaussian process with
0.1590000000	an environment with
0.1590000000	distributional models of
0.1590000000	different methods of
0.1590000000	optimization problems with
0.1590000000	and non uniform
0.1590000000	mixture model for
0.1590000000	the solution and
0.1590000000	a novel graph
0.1590000000	spatial temporal and
0.1590000000	to operate in
0.1590000000	interval 0 1
0.1590000000	this article introduces
0.1590000000	thompson sampling and
0.1590000000	the signal and
0.1590000000	em algorithm for
0.1590000000	the principal components
0.1590000000	the first frame
0.1590000000	the image classification
0.1590000000	the agent with
0.1590000000	from different modalities
0.1590000000	recognition performance of
0.1590000000	using tools from
0.1590000000	semantic segmentation with
0.1590000000	an experiment on
0.1590000000	the optimization algorithm
0.1590000000	probabilistic model of
0.1590000000	a new cnn
0.1590000000	outlier detection in
0.1590000000	the optimal action
0.1590000000	an enhancement of
0.1590000000	of static and
0.1590000000	neural networks but
0.1590000000	the most influential
0.1590000000	optimization methods to
0.1590000000	the posterior probabilities
0.1590000000	word embeddings with
0.1590000000	of data or
0.1590000000	a benchmark for
0.1590000000	to aid in
0.1590000000	graphs such as
0.1590000000	in domains with
0.1590000000	any pair of
0.1590000000	of data mining
0.1590000000	adversarial attacks on
0.1590000000	the non negative
0.1590000000	of learning in
0.1590000000	various kinds of
0.1590000000	the method on
0.1590000000	the system by
0.1590000000	the features and
0.1590000000	and many other
0.1590000000	with attention for
0.1590000000	the mean of
0.1590000000	the network weights
0.1590000000	the two stream
0.1590000000	the problem for
0.1590000000	of human actions
0.1590000000	cross validation and
0.1590000000	t 1 2
0.1590000000	a logic programming
0.1590000000	a logic of
0.1590000000	greedy algorithm with
0.1590000000	a region based
0.1590000000	bayesian networks with
0.1590000000	the developed system
0.1590000000	optimization problem in
0.1590000000	for stochastic optimization
0.1590000000	this problem as
0.1590000000	the inputs and
0.1590000000	the model also
0.1590000000	inference methods for
0.1590000000	the art detection
0.1590000000	statistical model of
0.1590000000	regression model for
0.1590000000	that structure
0.1590000000	this filter
0.1590000000	new variables
0.1590000000	regression of
0.1590000000	that inference
0.1590000000	new task
0.1590000000	as post
0.1590000000	best solutions
0.1590000000	different view
0.1590000000	natural in
0.1590000000	for classes
0.1590000000	second stage
0.1590000000	for additive
0.1590000000	for preference
0.1590000000	for games
0.1590000000	for camera
0.1590000000	factors by
0.1590000000	on transfer
0.1590000000	from target
0.1590000000	on speech
0.1590000000	on regret
0.1590000000	for linear
0.1590000000	from measurements
0.1590000000	on random
0.1590000000	each local
0.1590000000	domain as
0.1590000000	the sift
0.1590000000	the observer
0.1590000000	the computing
0.1590000000	the wireless
0.1590000000	the estimate
0.1590000000	the abilities
0.1590000000	the signals
0.1590000000	the close
0.1590000000	the units
0.1590000000	planning by
0.1590000000	the curves
0.1590000000	the educational
0.1590000000	the engine
0.1590000000	the symbols
0.1590000000	the bird
0.1590000000	the multinomial
0.1590000000	the cardiac
0.1590000000	the attacker
0.1590000000	the controlled
0.1590000000	the balanced
0.1590000000	the sampled
0.1590000000	the definitions
0.1590000000	the artifacts
0.1590000000	the names
0.1590000000	the compact
0.1590000000	the phonetic
0.1590000000	the visibility
0.1590000000	the jaccard
0.1590000000	the multitask
0.1590000000	the dna
0.1590000000	the pair
0.1590000000	the seed
0.1590000000	the ordered
0.1590000000	another language
0.1590000000	gas and
0.1590000000	classes or
0.1590000000	of gp
0.1590000000	of interpolation
0.1590000000	matching by
0.1590000000	of forecasting
0.1590000000	of reviews
0.1590000000	motion for
0.1590000000	of causation
0.1590000000	of comparison
0.1590000000	of power
0.1590000000	of ci
0.1590000000	of crisp
0.1590000000	of student
0.1590000000	of disentangled
0.1590000000	of rank
0.1590000000	of news
0.1590000000	of signal
0.1590000000	of dimension
0.1590000000	triangulation of
0.1590000000	tuned for
0.1590000000	of problem
0.1590000000	of cities
0.1590000000	of key
0.1590000000	of likelihood
0.1590000000	of musical
0.1590000000	of restricted
0.1590000000	of different
0.1590000000	of wavelet
0.1590000000	of perceptual
0.1590000000	no matter
0.1590000000	kernel with
0.1590000000	connection and
0.1590000000	compatibility and
0.1590000000	distance with
0.1590000000	to variable
0.1590000000	parameter as
0.1590000000	value alignment
0.1590000000	these dynamics
0.1590000000	to sentiment
0.1590000000	to networks
0.1590000000	an l
0.1590000000	to sat
0.1590000000	these embeddings
0.1590000000	dnn for
0.1590000000	these estimators
0.1590000000	risk as
0.1590000000	computing and
0.1590000000	non robust
0.1590000000	and variations
0.1590000000	and redundancy
0.1590000000	mdp and
0.1590000000	and ultimately
0.1590000000	and student
0.1590000000	with graphs
0.1590000000	part level
0.1590000000	with constant
0.1590000000	and rough
0.1590000000	in pomdps
0.1590000000	a ga
0.1590000000	or latent
0.1590000000	a margin
0.1590000000	in traffic
0.1590000000	a trust
0.1590000000	a csp
0.1590000000	d data
0.1590000000	in partial
0.1590000000	a trainable
0.1590000000	loss by
0.1580000000	challenging task in computer vision
0.1580000000	large amount of training data
0.1580000000	small amount of training data
0.1580000000	by taking into account
0.1580000000	the problem into two
0.1580000000	used to calculate
0.1580000000	systems based on
0.1580000000	to communicate with
0.1580000000	the prediction performance
0.1580000000	data structures and
0.1580000000	able to classify
0.1580000000	the detection task
0.1580000000	the solution path
0.1580000000	programming language and
0.1580000000	more challenging than
0.1580000000	the gap in
0.1580000000	the key point
0.1580000000	the inference problem
0.1580000000	salient objects in
0.1580000000	of knowledge bases
0.1580000000	very deep networks
0.1580000000	however none of
0.1580000000	with very few
0.1580000000	these two tasks
0.1580000000	and variational inference
0.1580000000	both color and
0.1580000000	the learning performance
0.1580000000	a relatively new
0.1580000000	available online at
0.1580000000	a target object
0.1580000000	the low frequency
0.1580000000	the parameter values
0.1580000000	in multi objective
0.1580000000	the model selection
0.1580000000	neural network in
0.1580000000	features learned in
0.1580000000	for domain adaptation
0.1580000000	the relative pose
0.1580000000	the art recognition
0.1580000000	agent in
0.1580000000	baseline for
0.1580000000	several algorithms
0.1580000000	different granularities
0.1580000000	into one
0.1580000000	two timescale
0.1580000000	classifiers to
0.1580000000	for incorporating
0.1580000000	for single
0.1580000000	for structured
0.1580000000	for researchers
0.1580000000	the winning
0.1580000000	not require
0.1580000000	the working
0.1580000000	the computations
0.1580000000	the conclusion
0.1580000000	rule to
0.1580000000	color to
0.1580000000	units to
0.1580000000	of learned
0.1580000000	complexity for
0.1580000000	distributions as
0.1580000000	of approximating
0.1580000000	of recognizing
0.1580000000	of smooth
0.1580000000	of joint
0.1580000000	of intermediate
0.1580000000	more information
0.1580000000	of cellular
0.1580000000	of boolean
0.1580000000	challenge 2016
0.1580000000	any language
0.1580000000	these requirements
0.1580000000	these solutions
0.1580000000	between objects
0.1580000000	time and
0.1580000000	also presents
0.1580000000	trying to
0.1580000000	and visualizing
0.1580000000	and automatic
0.1580000000	and feature
0.1580000000	and more
0.1580000000	far less
0.1580000000	paths in
0.1580000000	under sampled
0.1580000000	function by
0.1580000000	a clinical
0.1580000000	a minor
0.1580000000	a topological
0.1580000000	in handling
0.1580000000	a budget
0.1580000000	in situations
0.1580000000	in reality
0.1580000000	without explicitly
0.1570000000	approach as well as
0.1570000000	the one hand and
0.1570000000	a unified framework to
0.1570000000	the proposed method and
0.1570000000	machine learning models and
0.1570000000	this approach to
0.1570000000	close to 1
0.1570000000	used to develop
0.1570000000	parallel corpus of
0.1570000000	new state of
0.1570000000	attention mechanism in
0.1570000000	well as to
0.1570000000	able to extract
0.1570000000	learning methods on
0.1570000000	challenging tasks in
0.1570000000	formal semantics and
0.1570000000	to different types
0.1570000000	a given word
0.1570000000	for regression and
0.1570000000	the first person
0.1570000000	of networks of
0.1570000000	to model and
0.1570000000	best suited for
0.1570000000	and to improve
0.1570000000	the gradient and
0.1570000000	for learning in
0.1570000000	proposed framework in
0.1570000000	the other agents
0.1570000000	for phase retrieval
0.1570000000	for scene recognition
0.1570000000	face images with
0.1570000000	these two methods
0.1570000000	and learning in
0.1570000000	domain adaptation and
0.1570000000	logic programming under
0.1570000000	online algorithms for
0.1570000000	the techniques of
0.1570000000	the most appropriate
0.1570000000	of feature maps
0.1570000000	a graph with
0.1570000000	in classification of
0.1570000000	the brain and
0.1570000000	the proposed new
0.1570000000	for non linear
0.1570000000	acoustic models for
0.1570000000	the subject and
0.1570000000	training data but
0.1570000000	for detection and
0.1570000000	sentiment analysis on
0.1570000000	the methods and
0.1570000000	the number and
0.1570000000	the baseline in
0.1570000000	the method with
0.1570000000	the method and
0.1570000000	of language and
0.1570000000	on learning to
0.1570000000	the parameter in
0.1570000000	of speech and
0.1570000000	graphical models and
0.1570000000	for such systems
0.1570000000	over state of
0.1570000000	and tested using
0.1570000000	objective function with
0.1570000000	the best expert
0.1570000000	learned and
0.1570000000	few studies
0.1570000000	both for
0.1570000000	this learning
0.1570000000	other image
0.1570000000	z and
0.1570000000	taken as
0.1570000000	face in
0.1570000000	s face
0.1570000000	novel approach
0.1570000000	best k
0.1570000000	stochastic non
0.1570000000	different families
0.1570000000	s image
0.1570000000	three level
0.1570000000	3d registration
0.1570000000	computation for
0.1570000000	surrounded by
0.1570000000	quite challenging
0.1570000000	head of
0.1570000000	too many
0.1570000000	for expressing
0.1570000000	however many
0.1570000000	many domains
0.1570000000	on depth
0.1570000000	for i
0.1570000000	for two
0.1570000000	each context
0.1570000000	predict whether
0.1570000000	if not
0.1570000000	on temporal
0.1570000000	calculus of
0.1570000000	matrix such
0.1570000000	just one
0.1570000000	the arc
0.1570000000	database for
0.1570000000	the affect
0.1570000000	the forecasting
0.1570000000	the o
0.1570000000	the cycle
0.1570000000	the p
0.1570000000	the unbiased
0.1570000000	the induction
0.1570000000	the alexa
0.1570000000	the animal
0.1570000000	matrix in
0.1570000000	the modal
0.1570000000	the biometric
0.1570000000	recall on
0.1570000000	operation of
0.1570000000	such architectures
0.1570000000	using various
0.1570000000	top view
0.1570000000	grammar of
0.1570000000	of on
0.1570000000	lstm for
0.1570000000	of r
0.1570000000	of relationships
0.1570000000	of textit
0.1570000000	of nested
0.1570000000	of representations
0.1570000000	of vectors
0.1570000000	of results
0.1570000000	of including
0.1570000000	of selection
0.1570000000	of views
0.1570000000	of granular
0.1570000000	of making
0.1570000000	of tissue
0.1570000000	i i
0.1570000000	any time
0.1570000000	to rapidly
0.1570000000	any two
0.1570000000	to zero
0.1570000000	to speech
0.1570000000	to more
0.1570000000	to move
0.1570000000	an interval
0.1570000000	an m
0.1570000000	to clustering
0.1570000000	to feature
0.1570000000	done with
0.1570000000	type 1
0.1570000000	by k
0.1570000000	allows to
0.1570000000	also use
0.1570000000	fusion with
0.1570000000	by querying
0.1570000000	priors to
0.1570000000	and offer
0.1570000000	rules into
0.1570000000	looks at
0.1570000000	with non
0.1570000000	and w
0.1570000000	and rules
0.1570000000	and approximate
0.1570000000	and privacy
0.1570000000	and r
0.1570000000	and tree
0.1570000000	and fake
0.1570000000	and contrast
0.1570000000	with three
0.1570000000	with simple
0.1570000000	and sentence
0.1570000000	even without
0.1570000000	and l
0.1570000000	well with
0.1570000000	across time
0.1570000000	and diversity
0.1570000000	tag and
0.1570000000	a business
0.1570000000	imaging with
0.1570000000	a significantly
0.1570000000	in accuracy
0.1570000000	a diagnosis
0.1570000000	a research
0.1570000000	a bottleneck
0.1570000000	a simulator
0.1570000000	in batch
0.1570000000	in one
0.1570000000	id and
0.1570000000	in long
0.1570000000	variables for
0.1570000000	in multimodal
0.1570000000	a weaker
0.1570000000	wish to
0.1560000000	with long short term memory lstm
0.1560000000	on long short term memory lstm
0.1560000000	of deep convolutional neural networks cnns
0.1560000000	a convolutional neural network cnn based
0.1560000000	a convolutional neural network cnn architecture
0.1560000000	a convolutional neural network cnn model
0.1560000000	and long short term memory lstm
0.1560000000	of convolutional neural network cnn
0.1560000000	a recurrent neural network based
0.1560000000	a deep neural network based
0.1560000000	using generative adversarial networks gans
0.1560000000	with convolutional neural networks cnns
0.1560000000	using long short term memory
0.1560000000	of recurrent neural networks rnns
0.1560000000	using convolutional neural networks cnns
0.1560000000	of answer set programming asp
0.1560000000	with deep convolutional neural networks
0.1560000000	many natural language processing nlp
0.1560000000	using deep convolutional neural network
0.1560000000	of natural language processing nlp
0.1560000000	on convolutional neural networks cnns
0.1560000000	of generative adversarial networks gans
0.1560000000	of reproducing kernel hilbert spaces
0.1560000000	of convolutional neural networks cnns
0.1560000000	in automatic speech recognition asr
0.1560000000	3d convolutional neural network cnn
0.1560000000	on real world data sets
0.1560000000	of convolutional neural networks cnn
0.1560000000	for deep convolutional neural networks
0.1560000000	and convolutional neural networks cnns
0.1560000000	of deep neural networks dnns
0.1560000000	a convolutional neural network trained
0.1560000000	in convolutional neural networks cnns
0.1560000000	in deep convolutional neural networks
0.1560000000	a convolutional neural network architecture
0.1560000000	the best performance in
0.1560000000	both in terms of
0.1560000000	the art models for
0.1560000000	the problem of reconstructing
0.1560000000	the proposed algorithm in
0.1560000000	the number of non
0.1560000000	mathcal o 1
0.1560000000	the hidden markov
0.1560000000	with state of
0.1560000000	system based on
0.1560000000	more suitable for
0.1560000000	well as of
0.1560000000	this paper analyzes
0.1560000000	devices such as
0.1560000000	gesture recognition system
0.1560000000	a version of
0.1560000000	of entities and
0.1560000000	image data and
0.1560000000	approximate inference and
0.1560000000	the camera s
0.1560000000	the proposed dataset
0.1560000000	does not need
0.1560000000	a concept of
0.1560000000	the database and
0.1560000000	speech recognition and
0.1560000000	the selected features
0.1560000000	the new features
0.1560000000	by up to
0.1560000000	the current paper
0.1560000000	the inputs to
0.1560000000	normalization in
0.1560000000	codes from
0.1560000000	problems like
0.1560000000	influence and
0.1560000000	dual of
0.1560000000	prior with
0.1560000000	game in
0.1560000000	as color
0.1560000000	processes over
0.1560000000	heuristics and
0.1560000000	synergy between
0.1560000000	from two
0.1560000000	reduction to
0.1560000000	for other
0.1560000000	for certain
0.1560000000	from various
0.1560000000	from aerial
0.1560000000	however since
0.1560000000	becomes more
0.1560000000	outside of
0.1560000000	just as
0.1560000000	the behavioral
0.1560000000	the additive
0.1560000000	rate for
0.1560000000	some new
0.1560000000	scheme to
0.1560000000	score and
0.1560000000	movements of
0.1560000000	speech as
0.1560000000	system called
0.1560000000	nodes for
0.1560000000	gain and
0.1560000000	become more
0.1560000000	of certain
0.1560000000	back off
0.1560000000	century and
0.1560000000	given to
0.1560000000	cnn s
0.1560000000	of vehicle
0.1560000000	more appropriate
0.1560000000	of response
0.1560000000	only for
0.1560000000	of pair
0.1560000000	details and
0.1560000000	of mri
0.1560000000	of novel
0.1560000000	boundaries and
0.1560000000	described as
0.1560000000	induction and
0.1560000000	regularization with
0.1560000000	to sketch
0.1560000000	paradigm of
0.1560000000	reconstruct 3d
0.1560000000	explained in
0.1560000000	except for
0.1560000000	losses and
0.1560000000	reference to
0.1560000000	rnns and
0.1560000000	tasks into
0.1560000000	time for
0.1560000000	sqrt k
0.1560000000	beneficial in
0.1560000000	task 2
0.1560000000	navigation system
0.1560000000	distinctions between
0.1560000000	conflict and
0.1560000000	training as
0.1560000000	at once
0.1560000000	vocabulary and
0.1560000000	at last
0.1560000000	f and
0.1560000000	at various
0.1560000000	relations from
0.1560000000	tensors of
0.1560000000	candidate for
0.1560000000	far more
0.1560000000	n o
0.1560000000	and texture
0.1560000000	and others
0.1560000000	authentication using
0.1560000000	tags to
0.1560000000	networks as
0.1560000000	n points
0.1560000000	and only
0.1560000000	uses only
0.1560000000	a diffusion
0.1560000000	align with
0.1560000000	a lasso
0.1560000000	a specified
0.1560000000	coupling between
0.1560000000	sequences in
0.1560000000	a possible
0.1560000000	especially on
0.1560000000	costs for
0.1560000000	gp in
0.1560000000	tied to
0.1560000000	positions with
0.1550000000	deep learning techniques to
0.1550000000	to achieve state of
0.1550000000	the proposed algorithm on
0.1550000000	method results in
0.1550000000	the same as
0.1550000000	up to now
0.1550000000	based models in
0.1550000000	active learning in
0.1550000000	the word order
0.1550000000	the image content
0.1550000000	mainly focus on
0.1550000000	for first person
0.1550000000	the very deep
0.1550000000	l 1 l
0.1550000000	latent factors and
0.1550000000	classification results on
0.1550000000	in higher order
0.1550000000	with very high
0.1550000000	cifar 100 datasets
0.1550000000	the input for
0.1550000000	the video sequence
0.1550000000	the available information
0.1550000000	for event detection
0.1550000000	changes to
0.1550000000	this condition
0.1550000000	s output
0.1550000000	as many
0.1550000000	3d voxel
0.1550000000	two extremes
0.1550000000	for diagnosing
0.1550000000	on five
0.1550000000	for parallel
0.1550000000	the used
0.1550000000	the quantitative
0.1550000000	using stochastic
0.1550000000	over conventional
0.1550000000	continuum of
0.1550000000	of distortion
0.1550000000	particularly for
0.1550000000	given only
0.1550000000	of cardiac
0.1550000000	of recovering
0.1550000000	of sequential
0.1550000000	value decompositions
0.1550000000	conclusions about
0.1550000000	these settings
0.1550000000	an attacker
0.1550000000	to many
0.1550000000	to various
0.1550000000	an fpga
0.1550000000	an enormous
0.1550000000	an optical
0.1550000000	sent to
0.1550000000	value for
0.1550000000	time horizons
0.1550000000	going to
0.1550000000	valuable for
0.1550000000	and construct
0.1550000000	and without
0.1550000000	and continuous
0.1550000000	and conclude
0.1550000000	and structured
0.1550000000	th order
0.1550000000	a parser
0.1550000000	in three
0.1550000000	a further
0.1550000000	1 dimensional
0.1550000000	gaps between
0.1540000000	and does not depend on
0.1540000000	by convolutional neural networks
0.1540000000	the art baselines in
0.1540000000	relatively small number of
0.1540000000	to improve performance on
0.1540000000	with large numbers of
0.1540000000	between two sets of
0.1540000000	the first step of
0.1540000000	at different scales and
0.1540000000	a comparative study on
0.1540000000	3d fully convolutional networks
0.1540000000	held out test
0.1540000000	a source of
0.1540000000	important implications for
0.1540000000	and speed of
0.1540000000	data augmentation and
0.1540000000	a network trained
0.1540000000	matrix based on
0.1540000000	as inputs to
0.1540000000	in action recognition
0.1540000000	experiments on various
0.1540000000	and validation of
0.1540000000	to assist in
0.1540000000	leads to better
0.1540000000	of individuals in
0.1540000000	and diversity of
0.1540000000	for learning word
0.1540000000	chaotic time series
0.1540000000	in english and
0.1540000000	a formalism for
0.1540000000	non linearity in
0.1540000000	a relationship between
0.1540000000	the proposed training
0.1540000000	the recognition task
0.1540000000	of people in
0.1540000000	for super resolution
0.1540000000	the classifier and
0.1540000000	for such data
0.1540000000	and faster convergence
0.1540000000	of low quality
0.1540000000	to mathbb r
0.1540000000	of representation learning
0.1540000000	cnns on
0.1540000000	language or
0.1540000000	algorithms like
0.1540000000	algorithms using
0.1540000000	compare to
0.1540000000	polynomially many
0.1540000000	results by
0.1540000000	for computational
0.1540000000	each epoch
0.1540000000	inferences about
0.1540000000	need not
0.1540000000	the band
0.1540000000	the thresholded
0.1540000000	deployment in
0.1540000000	the five
0.1540000000	systems on
0.1540000000	over other
0.1540000000	using both
0.1540000000	procedure of
0.1540000000	of television
0.1540000000	full 3d
0.1540000000	of u
0.1540000000	i f
0.1540000000	issues and
0.1540000000	although many
0.1540000000	volume and
0.1540000000	while guaranteeing
0.1540000000	an o
0.1540000000	mean reward
0.1540000000	to several
0.1540000000	to standard
0.1540000000	objects or
0.1540000000	to relate
0.1540000000	tv and
0.1540000000	completeness of
0.1540000000	time instant
0.1540000000	studies and
0.1540000000	quality for
0.1540000000	assessed on
0.1540000000	non sparse
0.1540000000	with o
0.1540000000	assessments of
0.1540000000	recognized by
0.1540000000	in 3
0.1540000000	available on
0.1540000000	solutions with
0.1540000000	acting on
0.1530000000	and achieves state of
0.1530000000	for optical flow estimation
0.1530000000	the generative adversarial networks
0.1530000000	and high dimensional data
0.1530000000	in contrast to most
0.1530000000	a group of people
0.1530000000	the same word
0.1530000000	standard back propagation
0.1530000000	the training stage
0.1530000000	publicly available databases
0.1530000000	the different classes
0.1530000000	the target s
0.1530000000	become one of
0.1530000000	the size and
0.1530000000	full use of
0.1530000000	the user in
0.1530000000	the regions of
0.1530000000	cifar 10 dataset
0.1530000000	a dictionary of
0.1530000000	of words and
0.1530000000	the new algorithms
0.1530000000	numerical results show
0.1530000000	from time series
0.1530000000	placed on
0.1530000000	spaces by
0.1530000000	both time
0.1530000000	2 on
0.1530000000	s decision
0.1530000000	k in
0.1530000000	for formal
0.1530000000	on accuracy
0.1530000000	so on
0.1530000000	vision in
0.1530000000	each new
0.1530000000	from very
0.1530000000	policy by
0.1530000000	on very
0.1530000000	for up
0.1530000000	for conditional
0.1530000000	however for
0.1530000000	if one
0.1530000000	guess and
0.1530000000	dissimilarity between
0.1530000000	logics with
0.1530000000	the benchmarks
0.1530000000	the twitter
0.1530000000	the residuals
0.1530000000	the dlv
0.1530000000	the multimodal
0.1530000000	the width
0.1530000000	the place
0.1530000000	the factored
0.1530000000	database containing
0.1530000000	the refinement
0.1530000000	plans in
0.1530000000	the bernoulli
0.1530000000	the plane
0.1530000000	the binding
0.1530000000	languages used
0.1530000000	series for
0.1530000000	interaction for
0.1530000000	such features
0.1530000000	therefore do
0.1530000000	algebra of
0.1530000000	switch between
0.1530000000	complexity with
0.1530000000	given training
0.1530000000	particularly useful
0.1530000000	scales well
0.1530000000	of c
0.1530000000	of mixtures
0.1530000000	autoencoder and
0.1530000000	of visible
0.1530000000	of defaults
0.1530000000	of requirements
0.1530000000	of five
0.1530000000	very much
0.1530000000	of second
0.1530000000	of objectives
0.1530000000	of tweet
0.1530000000	supervision to
0.1530000000	useful for
0.1530000000	of detections
0.1530000000	privacy of
0.1530000000	concepts with
0.1530000000	to come
0.1530000000	to latent
0.1530000000	to less
0.1530000000	pose with
0.1530000000	these sub
0.1530000000	to classification
0.1530000000	to ask
0.1530000000	an associated
0.1530000000	value and
0.1530000000	camera and
0.1530000000	copes with
0.1530000000	vectors with
0.1530000000	graph on
0.1530000000	between tasks
0.1530000000	by case
0.1530000000	large as
0.1530000000	at first
0.1530000000	o e
0.1530000000	those with
0.1530000000	and road
0.1530000000	and constrained
0.1530000000	and connectivity
0.1530000000	object as
0.1530000000	with known
0.1530000000	with nonconvex
0.1530000000	with out
0.1530000000	and vehicle
0.1530000000	and gives
0.1530000000	intelligence to
0.1530000000	relaxation and
0.1530000000	proposal and
0.1530000000	available from
0.1530000000	in only
0.1530000000	a rather
0.1530000000	a demand
0.1530000000	separation and
0.1530000000	lda in
0.1520000000	in data mining and
0.1520000000	a bayesian model for
0.1520000000	the task of visual
0.1520000000	volumes of data
0.1520000000	the prediction error
0.1520000000	method for approximate
0.1520000000	a semantic representation
0.1520000000	method to approximate
0.1520000000	method to predict
0.1520000000	method to identify
0.1520000000	method to obtain
0.1520000000	method to analyze
0.1520000000	method to extract
0.1520000000	method to infer
0.1520000000	method to learn
0.1520000000	method to improve
0.1520000000	method to compute
0.1520000000	method to train
0.1520000000	method to select
0.1520000000	method to perform
0.1520000000	estimation from monocular
0.1520000000	suitable for large
0.1520000000	close to optimal
0.1520000000	architecture to learn
0.1520000000	method to segment
0.1520000000	method to build
0.1520000000	propose to apply
0.1520000000	histograms of oriented
0.1520000000	propose to perform
0.1520000000	propose to build
0.1520000000	method for discovering
0.1520000000	researchers to develop
0.1520000000	method for constructing
0.1520000000	attempt to improve
0.1520000000	method for segmenting
0.1520000000	method for automated
0.1520000000	attempt to solve
0.1520000000	method for building
0.1520000000	method for measuring
0.1520000000	method for improving
0.1520000000	method for selecting
0.1520000000	method for extracting
0.1520000000	method for automatic
0.1520000000	method for deep
0.1520000000	method for approximating
0.1520000000	method for optimizing
0.1520000000	method for identifying
0.1520000000	method for generating
0.1520000000	method for visual
0.1520000000	strategies to improve
0.1520000000	collections of images
0.1520000000	method to recover
0.1520000000	method for inferring
0.1520000000	propose to tackle
0.1520000000	method for predicting
0.1520000000	volume of data
0.1520000000	pose and shape
0.1520000000	method to generate
0.1520000000	method to automatically
0.1520000000	method to construct
0.1520000000	method for combining
0.1520000000	method to estimate
0.1520000000	objects in video
0.1520000000	method to address
0.1520000000	method for finding
0.1520000000	pose and facial
0.1520000000	propose to study
0.1520000000	propose to exploit
0.1520000000	propose to improve
0.1520000000	class of optimization
0.1520000000	class of methods
0.1520000000	class of distributions
0.1520000000	class of deep
0.1520000000	problem and present
0.1520000000	method for determining
0.1520000000	bag of word
0.1520000000	method for automatically
0.1520000000	class of convex
0.1520000000	class of structured
0.1520000000	problem and solve
0.1520000000	method to handle
0.1520000000	method for creating
0.1520000000	method to optimize
0.1520000000	method for modeling
0.1520000000	propose to utilize
0.1520000000	important to understand
0.1520000000	simple but efficient
0.1520000000	collections of documents
0.1520000000	unlike most existing
0.1520000000	probability theory and
0.1520000000	propose to represent
0.1520000000	problem and propose
0.1520000000	method to determine
0.1520000000	propose and compare
0.1520000000	propose to solve
0.1520000000	propose to incorporate
0.1520000000	aims at building
0.1520000000	analysis of local
0.1520000000	analysis of social
0.1520000000	analysis of stochastic
0.1520000000	analysis of complex
0.1520000000	method for assessing
0.1520000000	attempt to address
0.1520000000	propose to model
0.1520000000	deal of attention
0.1520000000	aims at providing
0.1520000000	aims at generating
0.1520000000	class of algorithms
0.1520000000	helps to improve
0.1520000000	method for computing
0.1520000000	method to evaluate
0.1520000000	propose to extend
0.1520000000	method for analyzing
0.1520000000	method to reconstruct
0.1520000000	focus on learning
0.1520000000	propose to address
0.1520000000	propose and evaluate
0.1520000000	problem and derive
0.1520000000	aims at improving
0.1520000000	method to solve
0.1520000000	design of efficient
0.1520000000	method for real
0.1520000000	bag of features
0.1520000000	parts of speech
0.1520000000	a hierarchical structure
0.1520000000	convolution and pooling
0.1520000000	analysis of human
0.1520000000	propose to train
0.1520000000	method for training
0.1520000000	efficiency and performance
0.1520000000	class of online
0.1520000000	metric to measure
0.1520000000	scalable and efficient
0.1520000000	objects in images
0.1520000000	method to reduce
0.1520000000	propose to combine
0.1520000000	class of graphical
0.1520000000	measures of uncertainty
0.1520000000	problems with large
0.1520000000	synthetic and benchmark
0.1520000000	method to detect
0.1520000000	class of stochastic
0.1520000000	simple but powerful
0.1520000000	cost of computing
0.1520000000	language and vision
0.1520000000	attempt to learn
0.1520000000	modalities of data
0.1520000000	efficiency and effectiveness
0.1520000000	focus on developing
0.1520000000	the data dimension
0.1520000000	efficiency and robustness
0.1520000000	efficiency and scalability
0.1520000000	polynomial time algorithm
0.1520000000	improvement over previous
0.1520000000	improvement over existing
0.1520000000	aims at finding
0.1520000000	present two methods
0.1520000000	baseline for future
0.1520000000	complex non linear
0.1520000000	fusion of multiple
0.1520000000	lead to substantial
0.1520000000	propose two algorithms
0.1520000000	family of distributions
0.1520000000	of face images
0.1520000000	simple and elegant
0.1520000000	learning from synthetic
0.1520000000	extraction of features
0.1520000000	approach to automated
0.1520000000	method on synthetic
0.1520000000	effects of actions
0.1520000000	focused on learning
0.1520000000	consist of multiple
0.1520000000	compact and efficient
0.1520000000	model and data
0.1520000000	obtained by combining
0.1520000000	data to generate
0.1520000000	data to estimate
0.1520000000	data to achieve
0.1520000000	of face recognition
0.1520000000	data to improve
0.1520000000	data to learn
0.1520000000	data to predict
0.1520000000	data to train
0.1520000000	approach to analyze
0.1520000000	approach to handle
0.1520000000	input in order
0.1520000000	fast to compute
0.1520000000	approach to predict
0.1520000000	propose two methods
0.1520000000	approach to capture
0.1520000000	family of methods
0.1520000000	family of models
0.1520000000	lead to suboptimal
0.1520000000	methods for generating
0.1520000000	approach on real
0.1520000000	lead to improved
0.1520000000	methods to improve
0.1520000000	images using convolutional
0.1520000000	lead to improvements
0.1520000000	approach to multi
0.1520000000	dataset of real
0.1520000000	dataset of images
0.1520000000	approach to semi
0.1520000000	accuracy and precision
0.1520000000	in generative models
0.1520000000	approach to automatically
0.1520000000	motivated by recent
0.1520000000	computation and memory
0.1520000000	robust and scalable
0.1520000000	approach to identify
0.1520000000	problems in natural
0.1520000000	approach to unsupervised
0.1520000000	methods to solve
0.1520000000	learning to detect
0.1520000000	approach to compute
0.1520000000	focused on improving
0.1520000000	approach to address
0.1520000000	algorithms for online
0.1520000000	approach to achieve
0.1520000000	approach to generate
0.1520000000	approach to tackle
0.1520000000	approach to solving
0.1520000000	needed in order
0.1520000000	an accurate model
0.1520000000	perform on par
0.1520000000	methods for image
0.1520000000	benchmark and real
0.1520000000	methods to generate
0.1520000000	simple and robust
0.1520000000	approach to infer
0.1520000000	models for predicting
0.1520000000	robust and fast
0.1520000000	dataset of human
0.1520000000	learning from incomplete
0.1520000000	in object detection
0.1520000000	easy to understand
0.1520000000	easy to obtain
0.1520000000	easy to compute
0.1520000000	approach to learn
0.1520000000	data to perform
0.1520000000	methods to automatically
0.1520000000	approach to detect
0.1520000000	easy to hard
0.1520000000	activities of daily
0.1520000000	motivated by applications
0.1520000000	with simulated data
0.1520000000	approach to modeling
0.1520000000	methods for detecting
0.1520000000	implemented in python
0.1520000000	easy to interpret
0.1520000000	learning to extract
0.1520000000	approach to estimating
0.1520000000	accuracy of classification
0.1520000000	approach to language
0.1520000000	body of research
0.1520000000	images using deep
0.1520000000	approach to model
0.1520000000	approach to construct
0.1520000000	approach to build
0.1520000000	implemented and tested
0.1520000000	simple and fast
0.1520000000	algorithms for estimating
0.1520000000	of bayesian inference
0.1520000000	approach to extract
0.1520000000	approach to visual
0.1520000000	framework to learn
0.1520000000	linear least squares
0.1520000000	approach to constraint
0.1520000000	approach to solve
0.1520000000	obtained by applying
0.1520000000	standard k means
0.1520000000	approach to study
0.1520000000	models for learning
0.1520000000	obtained by solving
0.1520000000	approach to combine
0.1520000000	approach to training
0.1520000000	easy to train
0.1520000000	easy to apply
0.1520000000	approach to train
0.1520000000	approach to reduce
0.1520000000	approach to estimate
0.1520000000	approach to improve
0.1520000000	approach to automatic
0.1520000000	lead to significant
0.1520000000	speech and language
0.1520000000	contrast to existing
0.1520000000	information into account
0.1520000000	methods for training
0.1520000000	retrieval and classification
0.1520000000	accuracy and performance
0.1520000000	learning to generate
0.1520000000	learning for visual
0.1520000000	learning for classification
0.1520000000	algorithms for training
0.1520000000	including computer vision
0.1520000000	contrast to traditional
0.1520000000	contrast to conventional
0.1520000000	contrast to standard
0.1520000000	learning to perform
0.1520000000	learning to solve
0.1520000000	learning to play
0.1520000000	learning to predict
0.1520000000	learning to recognize
0.1520000000	learning to search
0.1520000000	learning to improve
0.1520000000	learning to classify
0.1520000000	learning to model
0.1520000000	learning to segment
0.1520000000	methods to estimate
0.1520000000	learning from demonstration
0.1520000000	learning from multiple
0.1520000000	learning from examples
0.1520000000	simple and effective
0.1520000000	methods and demonstrate
0.1520000000	methods and achieves
0.1520000000	methods and algorithms
0.1520000000	framework to analyze
0.1520000000	yields more accurate
0.1520000000	accuracy and speed
0.1520000000	addition to providing
0.1520000000	achieve better results
0.1520000000	methods to analyze
0.1520000000	methods to detect
0.1520000000	methods to predict
0.1520000000	methods to learn
0.1520000000	methods to identify
0.1520000000	methods for automatic
0.1520000000	methods for multi
0.1520000000	methods for evaluating
0.1520000000	methods for learning
0.1520000000	methods for finding
0.1520000000	methods for estimating
0.1520000000	simple and intuitive
0.1520000000	simple and natural
0.1520000000	simple and general
0.1520000000	needed to train
0.1520000000	needed to achieve
0.1520000000	information to improve
0.1520000000	accuracy and interpretability
0.1520000000	effectiveness and robustness
0.1520000000	sensitive to outliers
0.1520000000	sensitive to noise
0.1520000000	model and predict
0.1520000000	audio and text
0.1520000000	tracking and classification
0.1520000000	robustness to outliers
0.1520000000	the cosine similarity
0.1520000000	builds on recent
0.1520000000	mixture of gaussian
0.1520000000	framework to achieve
0.1520000000	implement and evaluate
0.1520000000	effectiveness and scalability
0.1520000000	commonly used methods
0.1520000000	computation and storage
0.1520000000	resulting in improved
0.1520000000	processing computer vision
0.1520000000	framework to model
0.1520000000	framework to generate
0.1520000000	framework to address
0.1520000000	framework to improve
0.1520000000	framework to solve
0.1520000000	framework to handle
0.1520000000	framework to perform
0.1520000000	algorithms for finding
0.1520000000	algorithms for approximate
0.1520000000	algorithms for large
0.1520000000	algorithms for computing
0.1520000000	algorithms for probabilistic
0.1520000000	model and demonstrate
0.1520000000	model and algorithm
0.1520000000	rely on hand
0.1520000000	models with high
0.1520000000	models for semantic
0.1520000000	compute and memory
0.1520000000	problems in imaging
0.1520000000	accuracy and scalability
0.1520000000	learning and planning
0.1520000000	deal with high
0.1520000000	analysis and experiments
0.1520000000	problem of reconstructing
0.1520000000	groups of nodes
0.1520000000	learning and classification
0.1520000000	increase in accuracy
0.1520000000	problem of identifying
0.1520000000	deal with multiple
0.1520000000	experiments on standard
0.1520000000	in two dimensional
0.1520000000	representation of natural
0.1520000000	representation of uncertainty
0.1520000000	representation of knowledge
0.1520000000	cnn for image
0.1520000000	a novel and
0.1520000000	objects and parts
0.1520000000	objects and scenes
0.1520000000	techniques in order
0.1520000000	problem of discovering
0.1520000000	problem of predicting
0.1520000000	problem of automatic
0.1520000000	experiments on chinese
0.1520000000	results in improved
0.1520000000	problem of determining
0.1520000000	problem of data
0.1520000000	aspects of human
0.1520000000	experiments on challenging
0.1520000000	directly from data
0.1520000000	weights and biases
0.1520000000	trained to generate
0.1520000000	problem of extracting
0.1520000000	deal with data
0.1520000000	aims to minimize
0.1520000000	directly from raw
0.1520000000	relations between objects
0.1520000000	analysis and classification
0.1520000000	thousands of classes
0.1520000000	design and analysis
0.1520000000	problem of human
0.1520000000	objects and relations
0.1520000000	reduction in error
0.1520000000	making under uncertainty
0.1520000000	problem of inferring
0.1520000000	design and implement
0.1520000000	aims to develop
0.1520000000	problem of efficient
0.1520000000	the conditional distributions
0.1520000000	sequences of actions
0.1520000000	problem of selecting
0.1520000000	problem of optimizing
0.1520000000	problem of supervised
0.1520000000	problem of classifying
0.1520000000	problem of optimal
0.1520000000	variations in pose
0.1520000000	problem of approximate
0.1520000000	learning and prediction
0.1520000000	problem of generating
0.1520000000	problem of recognizing
0.1520000000	problem by learning
0.1520000000	problem of mapping
0.1520000000	problem of segmenting
0.1520000000	problem of estimating
0.1520000000	problem of finding
0.1520000000	problem of computing
0.1520000000	experiments on large
0.1520000000	representation of images
0.1520000000	deal with complex
0.1520000000	source of data
0.1520000000	training from scratch
0.1520000000	effective and robust
0.1520000000	analysis and optimization
0.1520000000	conducted to verify
0.1520000000	representation of data
0.1520000000	sequences of words
0.1520000000	problem of deciding
0.1520000000	problem of automatically
0.1520000000	experiments on image
0.1520000000	problem of learning
0.1520000000	problem by introducing
0.1520000000	trained to classify
0.1520000000	problem of recovering
0.1520000000	representation of words
0.1520000000	conducted to demonstrate
0.1520000000	expensive to evaluate
0.1520000000	of unseen classes
0.1520000000	groups of variables
0.1520000000	aims to maximize
0.1520000000	experiments on multiple
0.1520000000	experiments on benchmark
0.1520000000	design and development
0.1520000000	learning and reasoning
0.1520000000	learning and pattern
0.1520000000	problem of model
0.1520000000	studies and real
0.1520000000	aims to generate
0.1520000000	learning and statistical
0.1520000000	learning and optimization
0.1520000000	learning and hash
0.1520000000	learned from data
0.1520000000	process of identifying
0.1520000000	powerful and flexible
0.1520000000	expensive to obtain
0.1520000000	the word embedding
0.1520000000	agent to learn
0.1520000000	simulations and experiments
0.1520000000	simulation and real
0.1520000000	reduction and classification
0.1520000000	hard to obtain
0.1520000000	trained to perform
0.1520000000	thousands of images
0.1520000000	thousands of features
0.1520000000	suffers from high
0.1520000000	convex and smooth
0.1520000000	degree of accuracy
0.1520000000	conducted to validate
0.1520000000	conducted to evaluate
0.1520000000	for first order
0.1520000000	simulations and real
0.1520000000	aims to address
0.1520000000	aims to detect
0.1520000000	aims to improve
0.1520000000	aims to predict
0.1520000000	aims to reduce
0.1520000000	model s ability
0.1520000000	product of experts
0.1520000000	build on recent
0.1520000000	hard to detect
0.1520000000	hard to train
0.1520000000	hard to solve
0.1520000000	quantities of data
0.1520000000	increase in performance
0.1520000000	convex and nonconvex
0.1520000000	accurate and efficient
0.1520000000	accurate and interpretable
0.1520000000	expensive to acquire
0.1520000000	expensive to compute
0.1520000000	contrary to previous
0.1520000000	trained to maximize
0.1520000000	trained to detect
0.1520000000	trained to learn
0.1520000000	trained to solve
0.1520000000	trained to produce
0.1520000000	knowledge in order
0.1520000000	model s performance
0.1520000000	model s predictions
0.1520000000	types of images
0.1520000000	subset of data
0.1520000000	number of objectives
0.1520000000	information from multiple
0.1520000000	order to estimate
0.1520000000	lack of sufficient
0.1520000000	achieve good results
0.1520000000	number of points
0.1520000000	leads to poor
0.1520000000	number of states
0.1520000000	number of network
0.1520000000	method of extracting
0.1520000000	method of moments
0.1520000000	method of multipliers
0.1520000000	terms of information
0.1520000000	terms of computational
0.1520000000	terms of image
0.1520000000	terms of performance
0.1520000000	terms of bleu
0.1520000000	complexity and memory
0.1520000000	learn to predict
0.1520000000	order to preserve
0.1520000000	terms of psnr
0.1520000000	form of regularization
0.1520000000	order to recover
0.1520000000	estimation and image
0.1520000000	terms of average
0.1520000000	order to tackle
0.1520000000	order to handle
0.1520000000	order to compute
0.1520000000	terms of efficiency
0.1520000000	evaluation and comparison
0.1520000000	automatic and human
0.1520000000	publicly available benchmarks
0.1520000000	number of dimensions
0.1520000000	solve such problems
0.1520000000	order to prevent
0.1520000000	subset of features
0.1520000000	order to adapt
0.1520000000	effective in practice
0.1520000000	order to develop
0.1520000000	terms of quality
0.1520000000	inspired by recent
0.1520000000	number of additional
0.1520000000	order to maximize
0.1520000000	publicly available dataset
0.1520000000	number of nonzero
0.1520000000	number of feature
0.1520000000	difficult to interpret
0.1520000000	number of real
0.1520000000	required to learn
0.1520000000	field of computational
0.1520000000	order to ensure
0.1520000000	required to obtain
0.1520000000	observations and actions
0.1520000000	data in order
0.1520000000	method of choice
0.1520000000	effective in improving
0.1520000000	number of observations
0.1520000000	text and images
0.1520000000	order to construct
0.1520000000	complexity of solving
0.1520000000	learn to generate
0.1520000000	data in terms
0.1520000000	provide useful information
0.1520000000	relationships between objects
0.1520000000	number of selected
0.1520000000	terms of model
0.1520000000	data and demonstrate
0.1520000000	text and image
0.1520000000	number of techniques
0.1520000000	terms of precision
0.1520000000	visual and quantitative
0.1520000000	input and produces
0.1520000000	order to understand
0.1520000000	lack of information
0.1520000000	order to generate
0.1520000000	data and provide
0.1520000000	learn to perform
0.1520000000	types of objects
0.1520000000	images or video
0.1520000000	leads to faster
0.1520000000	number of segments
0.1520000000	field of medical
0.1520000000	input and outputs
0.1520000000	complexity of computing
0.1520000000	terms of predictive
0.1520000000	number of latent
0.1520000000	types of noise
0.1520000000	number of neighbors
0.1520000000	number of object
0.1520000000	number of distinct
0.1520000000	difficult to compute
0.1520000000	order to evaluate
0.1520000000	introduce and analyze
0.1520000000	terms of convergence
0.1520000000	difficult to apply
0.1520000000	number of tests
0.1520000000	terms of estimation
0.1520000000	terms of accuracy
0.1520000000	meanings of words
0.1520000000	types of data
0.1520000000	consistent with human
0.1520000000	types of neural
0.1520000000	order to perform
0.1520000000	number of rows
0.1520000000	reported to date
0.1520000000	type of problems
0.1520000000	number of local
0.1520000000	result in large
0.1520000000	finite time analysis
0.1520000000	order to learn
0.1520000000	relationships between variables
0.1520000000	actions and objects
0.1520000000	location and orientation
0.1520000000	training very deep
0.1520000000	number of noisy
0.1520000000	order to incorporate
0.1520000000	type of information
0.1520000000	order to explore
0.1520000000	type of data
0.1520000000	complexity of learning
0.1520000000	provide new insights
0.1520000000	difficult to implement
0.1520000000	networks with discrete
0.1520000000	terms of robustness
0.1520000000	types of sensors
0.1520000000	scale and rotation
0.1520000000	types of features
0.1520000000	object and scene
0.1520000000	the target function
0.1520000000	types of errors
0.1520000000	number of algorithms
0.1520000000	number of output
0.1520000000	data and model
0.1520000000	data and compare
0.1520000000	model of human
0.1520000000	order to effectively
0.1520000000	relationships between words
0.1520000000	number of targets
0.1520000000	data and real
0.1520000000	to high order
0.1520000000	model of language
0.1520000000	networks with multiple
0.1520000000	composed of multiple
0.1520000000	completion and robust
0.1520000000	required for training
0.1520000000	the loss functions
0.1520000000	number of relevant
0.1520000000	required to solve
0.1520000000	required to perform
0.1520000000	order to avoid
0.1520000000	leads to superior
0.1520000000	number of outliers
0.1520000000	inference for latent
0.1520000000	theory of mind
0.1520000000	order to support
0.1520000000	extracted from images
0.1520000000	superior to existing
0.1520000000	difficult to learn
0.1520000000	difficult to optimize
0.1520000000	difficult to distinguish
0.1520000000	difficult to evaluate
0.1520000000	difficult to solve
0.1520000000	difficult to understand
0.1520000000	difficult to identify
0.1520000000	difficult to achieve
0.1520000000	order to select
0.1520000000	the noise distribution
0.1520000000	number of frames
0.1520000000	number of actions
0.1520000000	number of trials
0.1520000000	number of studies
0.1520000000	number of related
0.1520000000	number of neurons
0.1520000000	number of elements
0.1520000000	number of independent
0.1520000000	number of examples
0.1520000000	number of classifiers
0.1520000000	number of weights
0.1520000000	number of bits
0.1520000000	number of times
0.1520000000	number of agents
0.1520000000	number of particles
0.1520000000	number of data
0.1520000000	number of tasks
0.1520000000	number of benchmark
0.1520000000	number of objects
0.1520000000	number of edges
0.1520000000	number of pixels
0.1520000000	leads to significantly
0.1520000000	number of channels
0.1520000000	number of categories
0.1520000000	number of attributes
0.1520000000	number of models
0.1520000000	number of instances
0.1520000000	number of sample
0.1520000000	number of experiments
0.1520000000	number of evaluations
0.1520000000	number of queries
0.1520000000	number of input
0.1520000000	number of constraints
0.1520000000	number of views
0.1520000000	number of measurements
0.1520000000	number of workers
0.1520000000	number of updates
0.1520000000	number of generations
0.1520000000	number of annotated
0.1520000000	number of required
0.1520000000	number of potential
0.1520000000	number of sampled
0.1520000000	number of unique
0.1520000000	number of connections
0.1520000000	number of sensors
0.1520000000	number of patterns
0.1520000000	number of operations
0.1520000000	number of blocks
0.1520000000	number of subjects
0.1520000000	number of cameras
0.1520000000	model of natural
0.1520000000	leads to higher
0.1520000000	order to identify
0.1520000000	results show significant
0.1520000000	order to solve
0.1520000000	order to demonstrate
0.1520000000	order to build
0.1520000000	order to detect
0.1520000000	order to address
0.1520000000	order to produce
0.1520000000	order to establish
0.1520000000	order to predict
0.1520000000	order to train
0.1520000000	order to derive
0.1520000000	order to extract
0.1520000000	order to facilitate
0.1520000000	order to create
0.1520000000	order to compare
0.1520000000	order to minimize
0.1520000000	order to assess
0.1520000000	order to alleviate
0.1520000000	order to provide
0.1520000000	order to validate
0.1520000000	order to guarantee
0.1520000000	order to determine
0.1520000000	order to enable
0.1520000000	order to define
0.1520000000	order to analyze
0.1520000000	order to reach
0.1520000000	order to increase
0.1520000000	order to capture
0.1520000000	order to study
0.1520000000	order to optimize
0.1520000000	order to enhance
0.1520000000	order to test
0.1520000000	order to overcome
0.1520000000	order to represent
0.1520000000	order to infer
0.1520000000	order to automatically
0.1520000000	order to apply
0.1520000000	order to control
0.1520000000	order to classify
0.1520000000	order to illustrate
0.1520000000	order to discover
0.1520000000	types of networks
0.1520000000	types of problems
0.1520000000	types of constraints
0.1520000000	evaluate and compare
0.1520000000	visual and semantic
0.1520000000	visual and thermal
0.1520000000	impact on performance
0.1520000000	face and object
0.1520000000	corpus of documents
0.1520000000	segmentation of liver
0.1520000000	framework for joint
0.1520000000	clustering of data
0.1520000000	of visual recognition
0.1520000000	achieves good performance
0.1520000000	level of performance
0.1520000000	level of complexity
0.1520000000	level of accuracy
0.1520000000	set of samples
0.1520000000	widely used approach
0.1520000000	framework for training
0.1520000000	representations of data
0.1520000000	widely used benchmark
0.1520000000	simplicity and efficiency
0.1520000000	bayesian non parametric
0.1520000000	set of users
0.1520000000	set of diverse
0.1520000000	framework for constructing
0.1520000000	advances in neural
0.1520000000	set of actions
0.1520000000	compared to single
0.1520000000	loss of accuracy
0.1520000000	classification using deep
0.1520000000	classifier to predict
0.1520000000	compared to classical
0.1520000000	tested and compared
0.1520000000	widely used technique
0.1520000000	set of sentences
0.1520000000	set of tools
0.1520000000	performance over existing
0.1520000000	set of conditions
0.1520000000	times n matrix
0.1520000000	set of unlabeled
0.1520000000	set of rules
0.1520000000	method in comparison
0.1520000000	diagnosis and treatment
0.1520000000	the player s
0.1520000000	compared to recent
0.1520000000	set of items
0.1520000000	framework for modeling
0.1520000000	set of latent
0.1520000000	sequence of actions
0.1520000000	rgb d image
0.1520000000	compared to prior
0.1520000000	set of relevant
0.1520000000	set of local
0.1520000000	set of distributions
0.1520000000	a transfer learning
0.1520000000	set of observed
0.1520000000	framework for performing
0.1520000000	set of arms
0.1520000000	compared to methods
0.1520000000	set of problems
0.1520000000	rgb d data
0.1520000000	segmentation of medical
0.1520000000	set of basis
0.1520000000	framework for solving
0.1520000000	rgb d based
0.1520000000	rgb d dataset
0.1520000000	online at http
0.1520000000	of visual perception
0.1520000000	set of synthetic
0.1520000000	loss of information
0.1520000000	set of observations
0.1520000000	compared to current
0.1520000000	set of images
0.1520000000	framework for robust
0.1520000000	framework for combining
0.1520000000	series of papers
0.1520000000	levels of performance
0.1520000000	levels of noise
0.1520000000	stationary time series
0.1520000000	the gradient descent
0.1520000000	reliable and accurate
0.1520000000	embeddings of words
0.1520000000	set of algorithms
0.1520000000	the optimal value
0.1520000000	piece of information
0.1520000000	widely used techniques
0.1520000000	framework for sparse
0.1520000000	the sparse codes
0.1520000000	theory and experiments
0.1520000000	theory and application
0.1520000000	theory and algorithms
0.1520000000	theory and applications
0.1520000000	set of points
0.1520000000	set of documents
0.1520000000	vision and graphics
0.1520000000	widely used methods
0.1520000000	widely used datasets
0.1520000000	widely used method
0.1520000000	set of data
0.1520000000	set of random
0.1520000000	set of tasks
0.1520000000	set of candidate
0.1520000000	set of experiments
0.1520000000	set of parameters
0.1520000000	set of input
0.1520000000	set of techniques
0.1520000000	set of candidates
0.1520000000	set of binary
0.1520000000	set of simple
0.1520000000	set of assumptions
0.1520000000	set of feature
0.1520000000	set of values
0.1520000000	set of variables
0.1520000000	set of low
0.1520000000	set of vectors
0.1520000000	set of entities
0.1520000000	set of linear
0.1520000000	set of human
0.1520000000	set of support
0.1520000000	set of functions
0.1520000000	set of constraints
0.1520000000	set of arguments
0.1520000000	compared to baseline
0.1520000000	sequence of images
0.1520000000	as logistic regression
0.1520000000	framework for analyzing
0.1520000000	framework for understanding
0.1520000000	framework for unsupervised
0.1520000000	framework for building
0.1520000000	framework for designing
0.1520000000	framework for large
0.1520000000	framework for automatic
0.1520000000	framework for visual
0.1520000000	framework for incorporating
0.1520000000	framework for representing
0.1520000000	framework for data
0.1520000000	framework for estimating
0.1520000000	framework for automated
0.1520000000	compared to previously
0.1520000000	compared to human
0.1520000000	compared to alternative
0.1520000000	speed and performance
0.1520000000	challenging to solve
0.1520000000	representations of words
0.1520000000	architecture and training
0.1520000000	real time image
0.1520000000	consists of multiple
0.1520000000	localization and mapping
0.1520000000	approaches to learning
0.1520000000	provided to demonstrate
0.1520000000	provided to illustrate
0.1520000000	real time deep
0.1520000000	comparison to existing
0.1520000000	french and english
0.1520000000	comparable to human
0.1520000000	learn more discriminative
0.1520000000	variety of application
0.1520000000	measure of dependence
0.1520000000	measure of similarity
0.1520000000	produce more accurate
0.1520000000	real time object
0.1520000000	collection of images
0.1520000000	approaches for learning
0.1520000000	variety of applications
0.1520000000	contrast with previous
0.1520000000	validated on synthetic
0.1520000000	networks to extract
0.1520000000	approaches to improve
0.1520000000	pairs of images
0.1520000000	alternative to existing
0.1520000000	approaches to solve
0.1520000000	networks to predict
0.1520000000	variety of datasets
0.1520000000	networks to perform
0.1520000000	results of experiments
0.1520000000	real time speed
0.1520000000	real time method
0.1520000000	model to learn
0.1520000000	pairs of objects
0.1520000000	model to generate
0.1520000000	provided to support
0.1520000000	the visual world
0.1520000000	real time data
0.1520000000	model to handle
0.1520000000	produces more accurate
0.1520000000	rank 1 accuracy
0.1520000000	real time video
0.1520000000	real time visual
0.1520000000	amounts of noise
0.1520000000	amounts of unlabeled
0.1520000000	models and demonstrate
0.1520000000	amounts of labeled
0.1520000000	collection of documents
0.1520000000	networks to model
0.1520000000	approaches for solving
0.1520000000	deterministic and stochastic
0.1520000000	easier to train
0.1520000000	easier to solve
0.1520000000	real time systems
0.1520000000	limitations of current
0.1520000000	presented to illustrate
0.1520000000	logic and probability
0.1520000000	presented to demonstrate
0.1520000000	collection of datasets
0.1520000000	pairs of words
0.1520000000	real time analysis
0.1520000000	real time performance
0.1520000000	highly non linear
0.1520000000	variety of data
0.1520000000	perception and cognition
0.1520000000	networks to learn
0.1520000000	networks to improve
0.1520000000	real time strategy
0.1520000000	robust to illumination
0.1520000000	real time feedback
0.1520000000	wealth of information
0.1520000000	pairs of points
0.1520000000	model to incorporate
0.1520000000	english and spanish
0.1520000000	robust to outliers
0.1520000000	models and propose
0.1520000000	availability of large
0.1520000000	highly non convex
0.1520000000	real time constraints
0.1520000000	variety of domains
0.1520000000	real time processing
0.1520000000	real time detection
0.1520000000	approaches to solving
0.1520000000	attention in recent
0.1520000000	yields better results
0.1520000000	important and challenging
0.1520000000	results of extensive
0.1520000000	model for text
0.1520000000	inference in large
0.1520000000	model to identify
0.1520000000	model to solve
0.1520000000	simulations on synthetic
0.1520000000	size and shape
0.1520000000	results of applying
0.1520000000	results of numerical
0.1520000000	variety of tasks
0.1520000000	variety of models
0.1520000000	variety of objects
0.1520000000	variety of scenarios
0.1520000000	variety of methods
0.1520000000	localization and recognition
0.1520000000	localization and segmentation
0.1520000000	model to improve
0.1520000000	difference of convex
0.1520000000	framework and propose
0.1520000000	datasets to demonstrate
0.1520000000	significantly more efficient
0.1520000000	comparison with existing
0.1520000000	model to estimate
0.1520000000	model to extract
0.1520000000	limitations of existing
0.1520000000	model for learning
0.1520000000	model for large
0.1520000000	model for classification
0.1520000000	model for multi
0.1520000000	model for joint
0.1520000000	model for predicting
0.1520000000	size and complexity
0.1520000000	models and datasets
0.1520000000	models and algorithms
0.1520000000	model to automatically
0.1520000000	model to perform
0.1520000000	model to represent
0.1520000000	model to capture
0.1520000000	model to predict
0.1520000000	model to analyze
0.1520000000	solving such problems
0.1520000000	inferred from data
0.1520000000	estimation of multiple
0.1520000000	based on greedy
0.1520000000	models of human
0.1520000000	technique to extract
0.1520000000	present and discuss
0.1520000000	capable of performing
0.1520000000	technique to reduce
0.1520000000	based on single
0.1520000000	a decision making
0.1520000000	improvements in performance
0.1520000000	words and sentences
0.1520000000	based on binary
0.1520000000	based on spatial
0.1520000000	based on markov
0.1520000000	based on generalized
0.1520000000	based on convex
0.1520000000	based on empirical
0.1520000000	based on belief
0.1520000000	based on supervised
0.1520000000	based on bidirectional
0.1520000000	based on user
0.1520000000	based on expectation
0.1520000000	based on sparse
0.1520000000	based on differential
0.1520000000	based on general
0.1520000000	based on expert
0.1520000000	based on kernel
0.1520000000	based on adversarial
0.1520000000	based on iterative
0.1520000000	based on natural
0.1520000000	based on variational
0.1520000000	based on previous
0.1520000000	based on local
0.1520000000	based on vector
0.1520000000	based on recent
0.1520000000	based on alternating
0.1520000000	based on features
0.1520000000	based on linear
0.1520000000	based on knowledge
0.1520000000	based on gibbs
0.1520000000	based on gradient
0.1520000000	based on observed
0.1520000000	based on learning
0.1520000000	based on decision
0.1520000000	based on multi
0.1520000000	based on dynamic
0.1520000000	based on real
0.1520000000	based on raw
0.1520000000	based on gaussian
0.1520000000	based on maximum
0.1520000000	based on adaptive
0.1520000000	based on multiple
0.1520000000	based on image
0.1520000000	based on stochastic
0.1520000000	based on particle
0.1520000000	based on context
0.1520000000	based on mathematical
0.1520000000	based on recurrent
0.1520000000	based on artificial
0.1520000000	based on similarity
0.1520000000	based on linguistic
0.1520000000	combined to form
0.1520000000	based on combining
0.1520000000	extract useful information
0.1520000000	improvement in accuracy
0.1520000000	based on support
0.1520000000	high resolution 3d
0.1520000000	aim to improve
0.1520000000	based on data
0.1520000000	based on hand
0.1520000000	data with missing
0.1520000000	data from multiple
0.1520000000	based on bayesian
0.1520000000	based on incremental
0.1520000000	segmentation and classification
0.1520000000	improvements in accuracy
0.1520000000	capable of solving
0.1520000000	based on robust
0.1520000000	based on training
0.1520000000	based on statistical
0.1520000000	capable of improving
0.1520000000	architecture for semantic
0.1520000000	based on distance
0.1520000000	based on decomposition
0.1520000000	based on sampling
0.1520000000	intractable in general
0.1520000000	based on hidden
0.1520000000	based on pairwise
0.1520000000	based on simple
0.1520000000	capable of providing
0.1520000000	based on standard
0.1520000000	based on matrix
0.1520000000	1 sqrt t
0.1520000000	modeling and inference
0.1520000000	users to understand
0.1520000000	based on probabilistic
0.1520000000	estimation of sparse
0.1520000000	based on feature
0.1520000000	cifar 10 datasets
0.1520000000	costly to obtain
0.1520000000	detection in multi
0.1520000000	detection in video
0.1520000000	improvement in classification
0.1520000000	based on past
0.1520000000	based on information
0.1520000000	based on distributed
0.1520000000	based on conditional
0.1520000000	based on global
0.1520000000	architecture for deep
0.1520000000	based on unsupervised
0.1520000000	based on prior
0.1520000000	based on evolutionary
0.1520000000	learn from data
0.1520000000	capable of representing
0.1520000000	based on complex
0.1520000000	segmentation and detection
0.1520000000	based on large
0.1520000000	based on motion
0.1520000000	capable of making
0.1520000000	capable of producing
0.1520000000	based on simulated
0.1520000000	based on partial
0.1520000000	based on correlation
0.1520000000	based on genetic
0.1520000000	analyze and compare
0.1520000000	detection in networks
0.1520000000	based on rough
0.1520000000	based on weighted
0.1520000000	based on tensor
0.1520000000	based on joint
0.1520000000	data from real
0.1520000000	the proposed adaptive
0.1520000000	based on spectral
0.1520000000	agent s behavior
0.1520000000	based on minimizing
0.1520000000	technique for automatic
0.1520000000	features of images
0.1520000000	based on observations
0.1520000000	detection in videos
0.1520000000	capable of accurately
0.1520000000	technique for learning
0.1520000000	learn and predict
0.1520000000	segmentation and recognition
0.1520000000	based on heuristic
0.1520000000	based on existing
0.1520000000	models in general
0.1520000000	based on random
0.1520000000	architecture for multi
0.1520000000	based on network
0.1520000000	capable of automatically
0.1520000000	model from data
0.1520000000	word and character
0.1520000000	group of agents
0.1520000000	the proposed attention
0.1520000000	the proposed representation
0.1520000000	toy and real
0.1520000000	written in python
0.1520000000	problems and propose
0.1520000000	modeling and simulation
0.1520000000	capable of adapting
0.1520000000	properties of deep
0.1520000000	properties of natural
0.1520000000	sources of error
0.1520000000	sources of data
0.1520000000	extended to handle
0.1520000000	extended to include
0.1520000000	capable of predicting
0.1520000000	capable of achieving
0.1520000000	algorithms with provable
0.1520000000	capable of detecting
0.1520000000	capable of finding
0.1520000000	capable of identifying
0.1520000000	recognition based on
0.1520000000	aim to learn
0.1520000000	aim to develop
0.1520000000	aim to provide
0.1520000000	present and analyze
0.1520000000	present and evaluate
0.1520000000	size of data
0.1520000000	evaluated and compared
0.1520000000	models of natural
0.1520000000	models to learn
0.1520000000	models to predict
0.1520000000	models to improve
0.1520000000	problems and demonstrate
0.1520000000	achieve more accurate
0.1520000000	ability to identify
0.1520000000	approach and demonstrate
0.1520000000	face of uncertainty
0.1520000000	color and depth
0.1520000000	features to predict
0.1520000000	classes of functions
0.1520000000	datasets and demonstrate
0.1520000000	proof of convergence
0.1520000000	proof of principle
0.1520000000	sum of squared
0.1520000000	ability to extract
0.1520000000	develop and evaluate
0.1520000000	robustness and efficiency
0.1520000000	ability to distinguish
0.1520000000	advancements in deep
0.1520000000	risk of overfitting
0.1520000000	shape and motion
0.1520000000	shape and texture
0.1520000000	shape and pose
0.1520000000	prohibitive for large
0.1520000000	a 3d object
0.1520000000	models from data
0.1520000000	obtained from multiple
0.1520000000	presence of high
0.1520000000	performance and efficiency
0.1520000000	training of gans
0.1520000000	images to learn
0.1520000000	features to improve
0.1520000000	features from data
0.1520000000	features from images
0.1520000000	features from multiple
0.1520000000	ability to accurately
0.1520000000	segmentation using deep
0.1520000000	millions of images
0.1520000000	shape and color
0.1520000000	efficient than existing
0.1520000000	millions of users
0.1520000000	performance of existing
0.1520000000	suffer from high
0.1520000000	for causal inference
0.1520000000	techniques to reduce
0.1520000000	leading to improved
0.1520000000	ability to recognize
0.1520000000	combination of multiple
0.1520000000	millions of parameters
0.1520000000	detection and description
0.1520000000	network for multi
0.1520000000	ability to predict
0.1520000000	learns to generate
0.1520000000	valued time series
0.1520000000	shape and size
0.1520000000	challenging computer vision
0.1520000000	potential to improve
0.1520000000	problem to solve
0.1520000000	probability of success
0.1520000000	detection and correction
0.1520000000	detection and localization
0.1520000000	simple yet efficient
0.1520000000	learns to perform
0.1520000000	the original images
0.1520000000	ability to produce
0.1520000000	ability to discriminate
0.1520000000	straightforward to implement
0.1520000000	features at multiple
0.1520000000	efficient than previous
0.1520000000	interested in finding
0.1520000000	obtain better results
0.1520000000	networks in order
0.1520000000	algorithms and applications
0.1520000000	image and text
0.1520000000	learns to extract
0.1520000000	ability to perform
0.1520000000	suffer from low
0.1520000000	large scale 3d
0.1520000000	techniques to solve
0.1520000000	algorithms and compare
0.1520000000	presence of outliers
0.1520000000	presence of large
0.1520000000	presence of multiple
0.1520000000	presence of strong
0.1520000000	robustness and accuracy
0.1520000000	algorithm and demonstrate
0.1520000000	recognition in video
0.1520000000	the two methods
0.1520000000	reasoning about knowledge
0.1520000000	ability to detect
0.1520000000	ability to model
0.1520000000	performance of traditional
0.1520000000	datasets and compared
0.1520000000	techniques to improve
0.1520000000	techniques to address
0.1520000000	techniques to learn
0.1520000000	for classification and
0.1520000000	combination of evidence
0.1520000000	datasets and compare
0.1520000000	network for action
0.1520000000	single and multi
0.1520000000	combination of local
0.1520000000	theoretical and computational
0.1520000000	performance of classification
0.1520000000	performance and energy
0.1520000000	performance and robustness
0.1520000000	performance and computational
0.1520000000	performance and provide
0.1520000000	recognition of objects
0.1520000000	ability to generate
0.1520000000	ability to generalize
0.1520000000	ability to automatically
0.1520000000	ability to handle
0.1520000000	ability to adapt
0.1520000000	ability to process
0.1520000000	ability to provide
0.1520000000	ability to understand
0.1520000000	combination of features
0.1520000000	algorithm and prove
0.1520000000	flexible and efficient
0.1520000000	algorithm in order
0.1520000000	fast and efficient
0.1520000000	designed to generate
0.1520000000	designed to produce
0.1520000000	designed to capture
0.1520000000	state of theart
0.1520000000	fast and reliable
0.1520000000	fast and effective
0.1520000000	attempts to learn
0.1520000000	state of affairs
0.1520000000	algorithm to improve
0.1520000000	performance on benchmark
0.1520000000	selection of features
0.1520000000	combinations of features
0.1520000000	results to demonstrate
0.1520000000	training and validation
0.1520000000	training and evaluating
0.1520000000	results on simulated
0.1520000000	results on mnist
0.1520000000	network to produce
0.1520000000	agents to learn
0.1520000000	algorithm for identifying
0.1520000000	fast and scalable
0.1520000000	fast and easy
0.1520000000	algorithm to estimate
0.1520000000	images and text
0.1520000000	experiments with real
0.1520000000	experiments with synthetic
0.1520000000	experiments with simulated
0.1520000000	proposed and implemented
0.1520000000	designed to support
0.1520000000	approach by showing
0.1520000000	approach by applying
0.1520000000	designed to perform
0.1520000000	shown to converge
0.1520000000	fail to achieve
0.1520000000	a review on
0.1520000000	designed to extract
0.1520000000	shown to significantly
0.1520000000	results for image
0.1520000000	algorithm for probabilistic
0.1520000000	performance in image
0.1520000000	network to perform
0.1520000000	network to solve
0.1520000000	sets of objects
0.1520000000	algorithm for optimizing
0.1520000000	loss in performance
0.1520000000	designed to address
0.1520000000	a single layer
0.1520000000	ensemble of models
0.1520000000	algorithm to achieve
0.1520000000	network to improve
0.1520000000	achieved by learning
0.1520000000	training and decoding
0.1520000000	algorithm for detecting
0.1520000000	computationally more efficient
0.1520000000	algorithm to optimize
0.1520000000	features for image
0.1520000000	non negative matrix
0.1520000000	dealing with large
0.1520000000	algorithm for estimating
0.1520000000	shown to hold
0.1520000000	fail to provide
0.1520000000	algorithm for robust
0.1520000000	algorithm s ability
0.1520000000	designed to solve
0.1520000000	network from scratch
0.1520000000	fail to generalize
0.1520000000	compared with traditional
0.1520000000	sets of data
0.1520000000	algorithm s performance
0.1520000000	algorithm for training
0.1520000000	dealing with uncertainty
0.1520000000	algorithm to address
0.1520000000	applications in data
0.1520000000	network to predict
0.1520000000	algorithm for fitting
0.1520000000	unseen during training
0.1520000000	algorithm to compute
0.1520000000	achieved by training
0.1520000000	fast and flexible
0.1520000000	results on challenging
0.1520000000	images and video
0.1520000000	shown to provide
0.1520000000	designed to learn
0.1520000000	algorithm to automatically
0.1520000000	extraction and matching
0.1520000000	results on public
0.1520000000	sets of images
0.1520000000	sets of probabilities
0.1520000000	linear time complexity
0.1520000000	linear time algorithm
0.1520000000	exploited to improve
0.1520000000	algorithm for sparse
0.1520000000	shown to yield
0.1520000000	compared with conventional
0.1520000000	the entire population
0.1520000000	efficient and practical
0.1520000000	efficient and robust
0.1520000000	efficient and easy
0.1520000000	development and evaluation
0.1520000000	development and test
0.1520000000	hard in general
0.1520000000	outperforms other methods
0.1520000000	algorithm for classification
0.1520000000	algorithm for general
0.1520000000	network to generate
0.1520000000	results on cifar
0.1520000000	results on real
0.1520000000	results on standard
0.1520000000	results on multiple
0.1520000000	shown to produce
0.1520000000	competitive with existing
0.1520000000	network to extract
0.1520000000	network to learn
0.1520000000	network to classify
0.1520000000	network to detect
0.1520000000	compared with previous
0.1520000000	algorithm with provable
0.1520000000	applications in video
0.1520000000	performance on standard
0.1520000000	performance on real
0.1520000000	speed of convergence
0.1520000000	algorithm to generate
0.1520000000	applications in image
0.1520000000	algorithm on real
0.1520000000	algorithm on synthetic
0.1520000000	algorithm for approximate
0.1520000000	algorithm for bayesian
0.1520000000	algorithm for automatic
0.1520000000	algorithm for extracting
0.1520000000	algorithm for exact
0.1520000000	algorithm to efficiently
0.1520000000	algorithm to learn
0.1520000000	algorithm to discover
0.1520000000	algorithm to search
0.1520000000	algorithm to train
0.1520000000	algorithm to perform
0.1520000000	algorithm to recover
0.1520000000	algorithm to handle
0.1520000000	algorithm to determine
0.1520000000	algorithm to identify
0.1520000000	algorithm to detect
0.1520000000	algorithm to extract
0.1520000000	cnn to extract
0.1520000000	recognition and image
0.1520000000	stored in memory
0.1520000000	trained on large
0.1520000000	proposed in literature
0.1520000000	task of finding
0.1520000000	proposed to train
0.1520000000	representation and classification
0.1520000000	applied to problems
0.1520000000	low to high
0.1520000000	general and flexible
0.1520000000	develop new algorithms
0.1520000000	representation and reasoning
0.1520000000	classification and retrieval
0.1520000000	task of determining
0.1520000000	applied to real
0.1520000000	experiments to compare
0.1520000000	proposed for solving
0.1520000000	techniques for solving
0.1520000000	applied to extract
0.1520000000	approach for large
0.1520000000	representation and inference
0.1520000000	applied to improve
0.1520000000	advantages over existing
0.1520000000	advantages over traditional
0.1520000000	recognition and text
0.1520000000	noise and outliers
0.1520000000	images with similar
0.1520000000	images with multiple
0.1520000000	approach for solving
0.1520000000	complex time series
0.1520000000	methods on synthetic
0.1520000000	kind of data
0.1520000000	correlation with human
0.1520000000	thermal and visual
0.1520000000	approach for extracting
0.1520000000	search and rescue
0.1520000000	selection and classification
0.1520000000	trained on imagenet
0.1520000000	classification and localization
0.1520000000	networks for visual
0.1520000000	approach for improving
0.1520000000	faster than existing
0.1520000000	tool for learning
0.1520000000	approach for estimating
0.1520000000	approach for computing
0.1520000000	classification and segmentation
0.1520000000	approach for automatic
0.1520000000	dataset and achieve
0.1520000000	faster than previous
0.1520000000	images as inputs
0.1520000000	classification and detection
0.1520000000	an efficient and
0.1520000000	classification and reconstruction
0.1520000000	introduced in order
0.1520000000	cnn and rnn
0.1520000000	approach for image
0.1520000000	proposed in recent
0.1520000000	algorithms to generate
0.1520000000	algorithms to improve
0.1520000000	approach for finding
0.1520000000	to achieve better
0.1520000000	images as input
0.1520000000	networks for scene
0.1520000000	tool for analyzing
0.1520000000	networks for action
0.1520000000	tool for modeling
0.1520000000	quality of service
0.1520000000	classification and recognition
0.1520000000	dataset and compare
0.1520000000	applied to image
0.1520000000	robustness of deep
0.1520000000	approach for training
0.1520000000	task of predicting
0.1520000000	networks for video
0.1520000000	task of classifying
0.1520000000	approach for efficient
0.1520000000	approach for unsupervised
0.1520000000	trained on synthetic
0.1520000000	proposed in order
0.1520000000	approach for joint
0.1520000000	quality of results
0.1520000000	techniques for improving
0.1520000000	classification of high
0.1520000000	represent and reason
0.1520000000	cnn to learn
0.1520000000	approach for constructing
0.1520000000	approach for human
0.1520000000	applied to multi
0.1520000000	dataset and demonstrate
0.1520000000	experiments to demonstrate
0.1520000000	images with high
0.1520000000	computational and memory
0.1520000000	approach for generating
0.1520000000	task of visual
0.1520000000	experiments to evaluate
0.1520000000	range of challenging
0.1520000000	quality of data
0.1520000000	quality of generated
0.1520000000	quality of life
0.1520000000	applied to solve
0.1520000000	algorithms to achieve
0.1520000000	task of generating
0.1520000000	task of automatically
0.1520000000	approach for fast
0.1520000000	tool for solving
0.1520000000	approach for learning
0.1520000000	quality and diversity
0.1520000000	proposed to handle
0.1520000000	dataset to train
0.1520000000	approach for detecting
0.1520000000	approach for designing
0.1520000000	approach for modeling
0.1520000000	recognition and localization
0.1520000000	networks for classification
0.1520000000	spatial and angular
0.1520000000	range of tasks
0.1520000000	range of applications
0.1520000000	range of domains
0.1520000000	applied to predict
0.1520000000	training examples and
0.1520000000	computational and sample
0.1520000000	areas of science
0.1520000000	structure from data
0.1520000000	proposed to improve
0.1520000000	proposed to estimate
0.1520000000	proposed to model
0.1520000000	proposed to enhance
0.1520000000	proposed to extract
0.1520000000	proposed to generate
0.1520000000	memory and computation
0.1520000000	robustness of neural
0.1520000000	the art tracking
0.1520000000	ability of deep
0.1520000000	on object recognition
0.1520000000	statistical and computational
0.1520000000	subsets of data
0.1520000000	subsets of features
0.1520000000	understanding of natural
0.1520000000	trained on data
0.1520000000	techniques for learning
0.1520000000	algorithms to compute
0.1520000000	dimension of data
0.1520000000	kind of problem
0.1520000000	algorithms to solve
0.1520000000	algorithms to estimate
0.1520000000	robot to learn
0.1520000000	trained on real
0.1520000000	recognition and detection
0.1520000000	recognition and analysis
0.1520000000	recognition and classification
0.1520000000	recognition and retrieval
0.1520000000	recognition and tracking
0.1520000000	recognition and segmentation
0.1520000000	this attack
0.1520000000	one particular
0.1520000000	other players
0.1520000000	this signal
0.1520000000	this characterization
0.1520000000	timing of
0.1520000000	layers by
0.1520000000	as little
0.1520000000	classifiers by
0.1520000000	policy with
0.1520000000	for several
0.1520000000	on and
0.1520000000	for map
0.1520000000	domain in
0.1520000000	on network
0.1520000000	trajectories to
0.1520000000	flows and
0.1520000000	same person
0.1520000000	sketches and
0.1520000000	the papers
0.1520000000	the cosine
0.1520000000	database to
0.1520000000	the audience
0.1520000000	translations for
0.1520000000	matrix as
0.1520000000	rate o
0.1520000000	the axioms
0.1520000000	the premises
0.1520000000	the cd
0.1520000000	the monotonic
0.1520000000	the customer
0.1520000000	the tsp
0.1520000000	region and
0.1520000000	context for
0.1520000000	brought about
0.1520000000	students and
0.1520000000	i o
0.1520000000	of symbols
0.1520000000	of aerial
0.1520000000	of decomposable
0.1520000000	of importance
0.1520000000	of service
0.1520000000	only very
0.1520000000	of behaviors
0.1520000000	of consciousness
0.1520000000	of discrimination
0.1520000000	no more
0.1520000000	of outlier
0.1520000000	to computing
0.1520000000	to very
0.1520000000	evolutionary and
0.1520000000	sample mean
0.1520000000	an out
0.1520000000	to exclude
0.1520000000	mean embeddings
0.1520000000	value at
0.1520000000	good performances
0.1520000000	allows one
0.1520000000	time to
0.1520000000	vectors to
0.1520000000	also allows
0.1520000000	better or
0.1520000000	with similarity
0.1520000000	authentication system
0.1520000000	svms in
0.1520000000	driving in
0.1520000000	with elastic
0.1520000000	with much
0.1520000000	and removal
0.1520000000	error from
0.1520000000	1 million
0.1520000000	simulator and
0.1520000000	sentences by
0.1520000000	a photograph
0.1520000000	or non
0.1520000000	a nearly
0.1520000000	segmentation on
0.1520000000	instability of
0.1510000000	results on synthetic and real
0.1510000000	performance in terms of accuracy
0.1510000000	the idea of using
0.1510000000	comparisons with state of
0.1510000000	the learning process in
0.1510000000	in machine learning and
0.1510000000	to solve such
0.1510000000	the same or
0.1510000000	used to describe
0.1510000000	based approach and
0.1510000000	the given problem
0.1510000000	in sparse coding
0.1510000000	black box and
0.1510000000	languages such as
0.1510000000	in theory and
0.1510000000	two types of
0.1510000000	image segmentation with
0.1510000000	in classification problems
0.1510000000	for linear models
0.1510000000	of one or
0.1510000000	and cross lingual
0.1510000000	in model selection
0.1510000000	a data point
0.1510000000	training method for
0.1510000000	a topic of
0.1510000000	many researchers in
0.1510000000	for variable selection
0.1510000000	partly due to
0.1510000000	for optical flow
0.1510000000	in representation learning
0.1510000000	for convex optimization
0.1510000000	by neural networks
0.1510000000	graphical models using
0.1510000000	by generative adversarial
0.1510000000	to end mapping
0.1510000000	neural network by
0.1510000000	learning problem to
0.1510000000	3d bounding boxes
0.1510000000	five years
0.1510000000	seen in
0.1510000000	few hours
0.1510000000	seen and
0.1510000000	still able
0.1510000000	changes of
0.1510000000	this semantic
0.1510000000	present new
0.1510000000	as for
0.1510000000	institute of
0.1510000000	as new
0.1510000000	as most
0.1510000000	techniques with
0.1510000000	cells and
0.1510000000	on most
0.1510000000	on computer
0.1510000000	for system
0.1510000000	same or
0.1510000000	zero one
0.1510000000	the solving
0.1510000000	the aggregated
0.1510000000	weakness of
0.1510000000	not too
0.1510000000	provides better
0.1510000000	the feedforward
0.1510000000	provides more
0.1510000000	currently in
0.1510000000	levels to
0.1510000000	make three
0.1510000000	make two
0.1510000000	download at
0.1510000000	using k
0.1510000000	system able
0.1510000000	participating in
0.1510000000	only need
0.1510000000	of retrieval
0.1510000000	of out
0.1510000000	effect in
0.1510000000	of conductance
0.1510000000	of compression
0.1510000000	more memory
0.1510000000	more often
0.1510000000	an entirely
0.1510000000	an over
0.1510000000	to solutions
0.1510000000	to deep
0.1510000000	generation from
0.1510000000	an mdp
0.1510000000	these learning
0.1510000000	by asking
0.1510000000	gives better
0.1510000000	and phase
0.1510000000	and out
0.1510000000	even under
0.1510000000	and further
0.1510000000	and thermal
0.1510000000	and argue
0.1510000000	favorably against
0.1510000000	especially useful
0.1510000000	segments of
0.1510000000	unaffected by
0.1510000000	in first
0.1510000000	in planning
0.1510000000	a side
0.1510000000	a dag
0.1510000000	per word
0.1500000000	the art methods for
0.1500000000	the proposed method to
0.1500000000	a lot of interest
0.1500000000	the proposed algorithm to
0.1500000000	more efficient and
0.1500000000	and rule based
0.1500000000	the feature representation
0.1500000000	n grams and
0.1500000000	of classes and
0.1500000000	to perform well
0.1500000000	approximation algorithms for
0.1500000000	of autonomous driving
0.1500000000	able to find
0.1500000000	do not assume
0.1500000000	as semantic segmentation
0.1500000000	from low resolution
0.1500000000	these neural networks
0.1500000000	to learn to
0.1500000000	estimator based on
0.1500000000	the first polynomial
0.1500000000	the task to
0.1500000000	mainly due to
0.1500000000	for representing and
0.1500000000	and stochastic gradient
0.1500000000	and long range
0.1500000000	using synthetic and
0.1500000000	the corpus to
0.1500000000	quantitative analysis of
0.1500000000	co occurrence statistics
0.1500000000	a robust and
0.1500000000	a flexible and
0.1500000000	a fast and
0.1500000000	many state of
0.1500000000	the results with
0.1500000000	the expected regret
0.1500000000	the logic programming
0.1500000000	supervised learning and
0.1500000000	both speed and
0.1500000000	the novel approach
0.1500000000	unsupervised learning in
0.1500000000	both accuracy and
0.1500000000	the complexity and
0.1500000000	a sample complexity
0.1500000000	for topic models
0.1500000000	noise model and
0.1500000000	feature maps of
0.1500000000	the learning procedure
0.1500000000	for training and
0.1500000000	for feature selection
0.1500000000	for cost sensitive
0.1500000000	the input of
0.1500000000	structures such as
0.1500000000	more effective and
0.1500000000	in bayesian networks
0.1500000000	both regression and
0.1500000000	non strongly convex
0.1500000000	the network on
0.1500000000	the original input
0.1500000000	for image restoration
0.1500000000	competitive results on
0.1500000000	new data driven
0.1500000000	the multi modal
0.1500000000	a video frame
0.1500000000	a feature representation
0.1500000000	a robot to
0.1500000000	on labeled data
0.1500000000	the multi task
0.1500000000	the sequence generated
0.1500000000	for human pose
0.1500000000	the deep q
0.1500000000	graphical models from
0.1500000000	to cluster data
0.1500000000	of speech recognition
0.1500000000	the framework and
0.1500000000	an important and
0.1500000000	the covariance of
0.1500000000	surface and
0.1500000000	labels with
0.1500000000	agent with
0.1500000000	adaptive and
0.1500000000	mostly due
0.1500000000	dnns for
0.1500000000	recognition to
0.1500000000	appear to
0.1500000000	problems both
0.1500000000	seen during
0.1500000000	testing of
0.1500000000	sentence from
0.1500000000	sampling as
0.1500000000	vector for
0.1500000000	this complexity
0.1500000000	this program
0.1500000000	new images
0.1500000000	box in
0.1500000000	program and
0.1500000000	sensors with
0.1500000000	s lemma
0.1500000000	cnns in
0.1500000000	much interest
0.1500000000	best fit
0.1500000000	datasets using
0.1500000000	sciences to
0.1500000000	different but
0.1500000000	as soon
0.1500000000	prediction system
0.1500000000	as different
0.1500000000	as two
0.1500000000	two and
0.1500000000	dimension to
0.1500000000	workers and
0.1500000000	control to
0.1500000000	set s
0.1500000000	simulations to
0.1500000000	calculus with
0.1500000000	for first
0.1500000000	synthesis in
0.1500000000	however as
0.1500000000	item to
0.1500000000	for user
0.1500000000	from visual
0.1500000000	for out
0.1500000000	options in
0.1500000000	simulations of
0.1500000000	computations and
0.1500000000	counterpart of
0.1500000000	clusters as
0.1500000000	matrix by
0.1500000000	propagation on
0.1500000000	the templates
0.1500000000	the partitions
0.1500000000	the keypoints
0.1500000000	relationship to
0.1500000000	scheme and
0.1500000000	the mental
0.1500000000	matrix under
0.1500000000	operations with
0.1500000000	learning into
0.1500000000	currently available
0.1500000000	students in
0.1500000000	gesture and
0.1500000000	known in
0.1500000000	extraction system
0.1500000000	databases to
0.1500000000	perception in
0.1500000000	vae and
0.1500000000	of operators
0.1500000000	only slightly
0.1500000000	distributions to
0.1500000000	analyzed using
0.1500000000	graphs as
0.1500000000	of accelerated
0.1500000000	but still
0.1500000000	of available
0.1500000000	imputation and
0.1500000000	of variational
0.1500000000	of computer
0.1500000000	of theories
0.1500000000	of naturally
0.1500000000	of background
0.1500000000	primarily on
0.1500000000	summarization of
0.1500000000	self occlusion
0.1500000000	to arbitrary
0.1500000000	to both
0.1500000000	to supervised
0.1500000000	while using
0.1500000000	noise to
0.1500000000	calls to
0.1500000000	manipulation of
0.1500000000	asr and
0.1500000000	labelled and
0.1500000000	questions regarding
0.1500000000	by giving
0.1500000000	acquisition and
0.1500000000	images often
0.1500000000	studies in
0.1500000000	tasks show
0.1500000000	locations to
0.1500000000	tags and
0.1500000000	way to
0.1500000000	boosting for
0.1500000000	templates and
0.1500000000	neural and
0.1500000000	with local
0.1500000000	and first
0.1500000000	and svm
0.1500000000	n samples
0.1500000000	and policy
0.1500000000	and so
0.1500000000	video by
0.1500000000	in grammatical
0.1500000000	sentences with
0.1500000000	sequences with
0.1500000000	a still
0.1500000000	a wavelet
0.1500000000	controller and
0.1500000000	in game
0.1500000000	d un
0.1500000000	analysis from
0.1500000000	produces better
0.1500000000	people in
0.1500000000	tuple of
0.1500000000	markers in
0.1490000000	an efficient method to
0.1490000000	learning techniques such as
0.1490000000	the art approaches on
0.1490000000	the art models on
0.1490000000	the performance of neural
0.1490000000	a neural network model
0.1490000000	to make use of
0.1490000000	the existing methods for
0.1490000000	the other state of
0.1490000000	as special cases of
0.1490000000	better performance compared to
0.1490000000	between two or more
0.1490000000	and k means clustering
0.1490000000	of supervised and
0.1490000000	to reason with
0.1490000000	data consisting of
0.1490000000	used to implement
0.1490000000	pos tagging for
0.1490000000	both visual and
0.1490000000	an effective and
0.1490000000	yields state of
0.1490000000	a novel video
0.1490000000	computational models of
0.1490000000	similarity measures for
0.1490000000	the first problem
0.1490000000	instead of using
0.1490000000	the arts on
0.1490000000	useful in many
0.1490000000	the regret bound
0.1490000000	however due to
0.1490000000	network architecture and
0.1490000000	image synthesis and
0.1490000000	a new way
0.1490000000	stochastic algorithms for
0.1490000000	pose estimation from
0.1490000000	a deep q
0.1490000000	in space and
0.1490000000	a new domain
0.1490000000	and testing of
0.1490000000	much better than
0.1490000000	variational approach to
0.1490000000	using word embeddings
0.1490000000	many applications in
0.1490000000	the search process
0.1490000000	of positive and
0.1490000000	latent representations of
0.1490000000	the computation time
0.1490000000	neural networks of
0.1490000000	an insight into
0.1490000000	language models with
0.1490000000	an average of
0.1490000000	information processing in
0.1490000000	the latent representations
0.1490000000	the design and
0.1490000000	of words in
0.1490000000	in presence of
0.1490000000	feature selection with
0.1490000000	in active learning
0.1490000000	detection method for
0.1490000000	convolutional networks on
0.1490000000	algorithms and show
0.1490000000	algorithm and show
0.1490000000	the objects and
0.1490000000	feature learning in
0.1490000000	word embedding and
0.1490000000	an important yet
0.1490000000	easily extended to
0.1490000000	at run time
0.1490000000	classifiers based on
0.1490000000	question answering in
0.1490000000	signals to
0.1490000000	used instead
0.1490000000	energy and
0.1490000000	web as
0.1490000000	this does
0.1490000000	principles and
0.1490000000	this group
0.1490000000	every time
0.1490000000	aim of
0.1490000000	arabic and
0.1490000000	asp with
0.1490000000	registration and
0.1490000000	several different
0.1490000000	different time
0.1490000000	2 bit
0.1490000000	novel use
0.1490000000	best first
0.1490000000	first show
0.1490000000	three features
0.1490000000	s local
0.1490000000	different models
0.1490000000	as users
0.1490000000	first and
0.1490000000	prior and
0.1490000000	as non
0.1490000000	as few
0.1490000000	as used
0.1490000000	two of
0.1490000000	several computer
0.1490000000	among multiple
0.1490000000	3d map
0.1490000000	for svm
0.1490000000	preferences to
0.1490000000	3 dimensional
0.1490000000	on github
0.1490000000	on all
0.1490000000	from gene
0.1490000000	for most
0.1490000000	for use
0.1490000000	however does
0.1490000000	for tackling
0.1490000000	on formal
0.1490000000	on construction
0.1490000000	for computer
0.1490000000	for gradient
0.1490000000	for zero
0.1490000000	from time
0.1490000000	from computer
0.1490000000	from semantic
0.1490000000	if then
0.1490000000	on object
0.1490000000	for further
0.1490000000	becomes even
0.1490000000	negation in
0.1490000000	the logarithm
0.1490000000	the out
0.1490000000	some conditions
0.1490000000	the proportional
0.1490000000	the criteria
0.1490000000	the back
0.1490000000	not obvious
0.1490000000	not possible
0.1490000000	the needs
0.1490000000	the name
0.1490000000	the matched
0.1490000000	most likely
0.1490000000	technique and
0.1490000000	the inductive
0.1490000000	the predictor
0.1490000000	the connected
0.1490000000	not known
0.1490000000	the automatically
0.1490000000	the lung
0.1490000000	embeddings from
0.1490000000	visualization and
0.1490000000	memory to
0.1490000000	using computer
0.1490000000	completion and
0.1490000000	languages using
0.1490000000	such tasks
0.1490000000	system on
0.1490000000	term of
0.1490000000	over all
0.1490000000	old and
0.1490000000	gain in
0.1490000000	become very
0.1490000000	i vectors
0.1490000000	i propose
0.1490000000	of mirror
0.1490000000	of scale
0.1490000000	of possible
0.1490000000	of initial
0.1490000000	looking for
0.1490000000	of wide
0.1490000000	but most
0.1490000000	but only
0.1490000000	but with
0.1490000000	comes at
0.1490000000	enough to
0.1490000000	of embeddings
0.1490000000	of hypothesis
0.1490000000	of factor
0.1490000000	of up
0.1490000000	but instead
0.1490000000	documents for
0.1490000000	of spike
0.1490000000	but do
0.1490000000	but does
0.1490000000	comes to
0.1490000000	little work
0.1490000000	any one
0.1490000000	described here
0.1490000000	to computer
0.1490000000	to solving
0.1490000000	an ever
0.1490000000	to video
0.1490000000	an arabic
0.1490000000	an established
0.1490000000	to not
0.1490000000	thus do
0.1490000000	these documents
0.1490000000	fragment of
0.1490000000	time interval
0.1490000000	within and
0.1490000000	by partial
0.1490000000	containing more
0.1490000000	better use
0.1490000000	time window
0.1490000000	various computer
0.1490000000	find near
0.1490000000	and multilingual
0.1490000000	those used
0.1490000000	next best
0.1490000000	and computer
0.1490000000	and least
0.1490000000	and able
0.1490000000	and thereby
0.1490000000	and does
0.1490000000	with regards
0.1490000000	and sometimes
0.1490000000	and bayesian
0.1490000000	text only
0.1490000000	with group
0.1490000000	with little
0.1490000000	with both
0.1490000000	survey provides
0.1490000000	and c
0.1490000000	and two
0.1490000000	and storage
0.1490000000	and expression
0.1490000000	and often
0.1490000000	and off
0.1490000000	complexities of
0.1490000000	per second
0.1490000000	a notable
0.1490000000	or do
0.1490000000	in regards
0.1490000000	a sub
0.1490000000	a use
0.1490000000	in cloud
0.1490000000	without considering
0.1490000000	in less
0.1490000000	in numerous
0.1490000000	in optical
0.1490000000	a descriptor
0.1490000000	in all
0.1490000000	a feasible
0.1490000000	a front
0.1490000000	variables with
0.1490000000	a third
0.1490000000	gaps in
0.1490000000	a song
0.1490000000	a rough
0.1480000000	a challenging problem due
0.1480000000	a challenging task due
0.1480000000	in many applications such
0.1480000000	for many applications such
0.1480000000	in recent years due
0.1480000000	information in order to
0.1480000000	a number of well
0.1480000000	a new method called
0.1480000000	at least as well
0.1480000000	an increasing amount
0.1480000000	the large amount
0.1480000000	the recent work
0.1480000000	topic models for
0.1480000000	and does not
0.1480000000	3d object reconstruction
0.1480000000	a singular value
0.1480000000	an essential part
0.1480000000	the last few
0.1480000000	learning model to
0.1480000000	the maximum mean
0.1480000000	the last two
0.1480000000	the same amount
0.1480000000	this approach does
0.1480000000	used to find
0.1480000000	often referred to
0.1480000000	the past few
0.1480000000	learning tasks and
0.1480000000	learning approach and
0.1480000000	news articles and
0.1480000000	evaluation methods for
0.1480000000	becoming more and
0.1480000000	a small amount
0.1480000000	a sequence to
0.1480000000	a small part
0.1480000000	optical flow and
0.1480000000	the first work
0.1480000000	by taking into
0.1480000000	the spatial layout
0.1480000000	two publicly available
0.1480000000	on real and
0.1480000000	sequential data such
0.1480000000	also referred to
0.1480000000	every pair of
0.1480000000	in practice due
0.1480000000	a reasonable amount
0.1480000000	a challenge due
0.1480000000	the results indicate
0.1480000000	a significant amount
0.1480000000	the classification results
0.1480000000	the expected value
0.1480000000	the user to
0.1480000000	many applications such
0.1480000000	to take into
0.1480000000	a limited amount
0.1480000000	both training and
0.1480000000	both with and
0.1480000000	and part of
0.1480000000	several synthetic and
0.1480000000	these methods do
0.1480000000	the learned policy
0.1480000000	the most likely
0.1480000000	due in part
0.1480000000	both labeled and
0.1480000000	both linear and
0.1480000000	recognition task and
0.1480000000	almost as well
0.1480000000	to make use
0.1480000000	generalization error of
0.1480000000	in domains such
0.1480000000	a substantial amount
0.1480000000	data sets for
0.1480000000	the desired properties
0.1480000000	of data and
0.1480000000	a graph structure
0.1480000000	on tasks such
0.1480000000	game theory and
0.1480000000	this assumption does
0.1480000000	one order of
0.1480000000	action detection in
0.1480000000	the problem by
0.1480000000	on artificial and
0.1480000000	a large and
0.1480000000	a large part
0.1480000000	last but not
0.1480000000	for bayesian networks
0.1480000000	several applications such
0.1480000000	both space and
0.1480000000	or in other
0.1480000000	non linear feature
0.1480000000	by making use
0.1480000000	not sufficient for
0.1480000000	optimization problem and
0.1480000000	deep networks in
0.1480000000	due to changes
0.1480000000	an efficient way
0.1480000000	an important part
0.1480000000	the art video
0.1480000000	the model does
0.1480000000	the art computer
0.1480000000	learning rule for
0.1480000000	the art probabilistic
0.1480000000	changes over
0.1480000000	bandit with
0.1480000000	software in
0.1480000000	still far
0.1480000000	dnns in
0.1480000000	descriptors on
0.1480000000	five different
0.1480000000	few hundred
0.1480000000	sampling in
0.1480000000	one by
0.1480000000	other well
0.1480000000	corpus as
0.1480000000	this novel
0.1480000000	this provides
0.1480000000	ones such
0.1480000000	chinese and
0.1480000000	this not
0.1480000000	used together
0.1480000000	signals with
0.1480000000	changes due
0.1480000000	taken into
0.1480000000	ct and
0.1480000000	cause and
0.1480000000	three well
0.1480000000	among other
0.1480000000	phase and
0.1480000000	single time
0.1480000000	question of
0.1480000000	into two
0.1480000000	yet to
0.1480000000	several well
0.1480000000	as far
0.1480000000	as part
0.1480000000	as good
0.1480000000	two or
0.1480000000	down to
0.1480000000	device s
0.1480000000	2d or
0.1480000000	before and
0.1480000000	many computer
0.1480000000	deep and
0.1480000000	observer and
0.1480000000	however due
0.1480000000	sources to
0.1480000000	tissue and
0.1480000000	for least
0.1480000000	for at
0.1480000000	from one
0.1480000000	from both
0.1480000000	for better
0.1480000000	for time
0.1480000000	tracking in
0.1480000000	mainly due
0.1480000000	matrix into
0.1480000000	the so
0.1480000000	need for
0.1480000000	planning as
0.1480000000	embeddings in
0.1480000000	explanations as
0.1480000000	the index
0.1480000000	made use
0.1480000000	physics of
0.1480000000	not due
0.1480000000	the necessary
0.1480000000	the tt
0.1480000000	some well
0.1480000000	strategy used
0.1480000000	hypothesis to
0.1480000000	necessary and
0.1480000000	found many
0.1480000000	descent to
0.1480000000	channel to
0.1480000000	take as
0.1480000000	nodes with
0.1480000000	using well
0.1480000000	learning as
0.1480000000	take into
0.1480000000	using of
0.1480000000	units with
0.1480000000	using back
0.1480000000	all at
0.1480000000	system with
0.1480000000	system such
0.1480000000	query in
0.1480000000	using different
0.1480000000	posts on
0.1480000000	engagement in
0.1480000000	art and
0.1480000000	only few
0.1480000000	very time
0.1480000000	more or
0.1480000000	very well
0.1480000000	hull of
0.1480000000	frame and
0.1480000000	full use
0.1480000000	particularly in
0.1480000000	but due
0.1480000000	via back
0.1480000000	of relative
0.1480000000	estimator and
0.1480000000	while also
0.1480000000	often do
0.1480000000	described and
0.1480000000	words of
0.1480000000	an ill
0.1480000000	to mine
0.1480000000	to changes
0.1480000000	concepts as
0.1480000000	these new
0.1480000000	pose in
0.1480000000	often associated
0.1480000000	to one
0.1480000000	adaptation with
0.1480000000	done using
0.1480000000	rnns with
0.1480000000	by use
0.1480000000	contains more
0.1480000000	by way
0.1480000000	by back
0.1480000000	relations on
0.1480000000	by at
0.1480000000	also find
0.1480000000	by more
0.1480000000	by up
0.1480000000	also known
0.1480000000	pixel to
0.1480000000	curves of
0.1480000000	mdp with
0.1480000000	composition in
0.1480000000	with use
0.1480000000	with side
0.1480000000	and up
0.1480000000	with several
0.1480000000	and due
0.1480000000	with many
0.1480000000	with back
0.1480000000	and changes
0.1480000000	with at
0.1480000000	object by
0.1480000000	with or
0.1480000000	evolution in
0.1480000000	with up
0.1480000000	in front
0.1480000000	mt system
0.1480000000	a bottom
0.1480000000	failure to
0.1480000000	in several
0.1480000000	segmentation by
0.1480000000	a contrast
0.1480000000	a least
0.1480000000	a bandit
0.1480000000	in still
0.1480000000	variables of
0.1480000000	a part
0.1480000000	a serious
0.1480000000	a so
0.1480000000	a proposed
0.1480000000	a coreset
0.1480000000	smt system
0.1480000000	fuzzy system
0.1470000000	in visual question answering
0.1470000000	in terms of both
0.1470000000	with natural language
0.1470000000	the noise in
0.1470000000	for reconstruction of
0.1470000000	the most frequent
0.1470000000	3d models of
0.1470000000	the expert system
0.1470000000	of data for
0.1470000000	the original algorithm
0.1470000000	the selection and
0.1470000000	as one of
0.1470000000	the one used
0.1470000000	the best possible
0.1470000000	this finding
0.1470000000	this interpretation
0.1470000000	new ways
0.1470000000	used with
0.1470000000	then train
0.1470000000	work well
0.1470000000	taken place
0.1470000000	less memory
0.1470000000	several researchers
0.1470000000	as follows
0.1470000000	three parts
0.1470000000	than others
0.1470000000	two novel
0.1470000000	3d volume
0.1470000000	operate at
0.1470000000	for sequential
0.1470000000	on time
0.1470000000	however such
0.1470000000	each dimension
0.1470000000	for non
0.1470000000	for interactive
0.1470000000	from more
0.1470000000	debugging of
0.1470000000	for children
0.1470000000	each target
0.1470000000	zero mean
0.1470000000	compiled into
0.1470000000	the mentioned
0.1470000000	the dot
0.1470000000	the kendall
0.1470000000	the m
0.1470000000	the recursive
0.1470000000	signal in
0.1470000000	the outer
0.1470000000	the particular
0.1470000000	the recommendation
0.1470000000	the ones
0.1470000000	the preferred
0.1470000000	the inner
0.1470000000	the others
0.1470000000	made on
0.1470000000	necessary to
0.1470000000	found by
0.1470000000	system does
0.1470000000	system using
0.1470000000	geometry to
0.1470000000	of phrases
0.1470000000	side outputs
0.1470000000	comes with
0.1470000000	of hierarchical
0.1470000000	almost never
0.1470000000	of expert
0.1470000000	of randomized
0.1470000000	of three
0.1470000000	very good
0.1470000000	of composition
0.1470000000	of sensors
0.1470000000	to learning
0.1470000000	mean of
0.1470000000	specified by
0.1470000000	fall within
0.1470000000	actions to
0.1470000000	to know
0.1470000000	an unbounded
0.1470000000	any of
0.1470000000	these works
0.1470000000	example of
0.1470000000	also consider
0.1470000000	position to
0.1470000000	by adaptively
0.1470000000	good accuracy
0.1470000000	also give
0.1470000000	look like
0.1470000000	far away
0.1470000000	part i
0.1470000000	and asymptotic
0.1470000000	and few
0.1470000000	with less
0.1470000000	with recurrent
0.1470000000	with m
0.1470000000	and incomplete
0.1470000000	with first
0.1470000000	with various
0.1470000000	programs in
0.1470000000	thereby reducing
0.1470000000	metric over
0.1470000000	similarities among
0.1470000000	available to
0.1470000000	available data
0.1470000000	in summary
0.1470000000	a progressive
0.1470000000	a penalized
0.1470000000	a confidence
0.1460000000	a large number of classes
0.1460000000	the field of view
0.1460000000	hidden markov models with
0.1460000000	the complexity of computing
0.1460000000	the number of measurements
0.1460000000	bounds based on
0.1460000000	level features from
0.1460000000	belief functions and
0.1460000000	this paper provides
0.1460000000	the first model
0.1460000000	of experts and
0.1460000000	hilbert space and
0.1460000000	the image processing
0.1460000000	supervised learning with
0.1460000000	medical images using
0.1460000000	information based on
0.1460000000	image retrieval system
0.1460000000	recognition accuracy of
0.1460000000	convolutional layers with
0.1460000000	distance between two
0.1460000000	in text classification
0.1460000000	structure learning of
0.1460000000	the two problems
0.1460000000	several state of
0.1460000000	as compared to
0.1460000000	the accuracy in
0.1460000000	and machine learning
0.1460000000	estimation error of
0.1460000000	the best known
0.1460000000	the best algorithm
0.1460000000	work with
0.1460000000	appear in
0.1460000000	one such
0.1460000000	work in
0.1460000000	both in
0.1460000000	other than
0.1460000000	that information
0.1460000000	one way
0.1460000000	then use
0.1460000000	appropriate for
0.1460000000	that such
0.1460000000	then show
0.1460000000	coherence of
0.1460000000	taken by
0.1460000000	try to
0.1460000000	than other
0.1460000000	use in
0.1460000000	among different
0.1460000000	among all
0.1460000000	two new
0.1460000000	high for
0.1460000000	seems to
0.1460000000	reasoning system
0.1460000000	as such
0.1460000000	disagreement between
0.1460000000	for constraint
0.1460000000	on four
0.1460000000	for fuzzy
0.1460000000	many other
0.1460000000	however in
0.1460000000	on different
0.1460000000	for path
0.1460000000	from different
0.1460000000	on various
0.1460000000	many different
0.1460000000	for various
0.1460000000	for boolean
0.1460000000	for different
0.1460000000	moving beyond
0.1460000000	brand new
0.1460000000	the clause
0.1460000000	the grounding
0.1460000000	made in
0.1460000000	the dictionaries
0.1460000000	the strongly
0.1460000000	the agnostic
0.1460000000	consider two
0.1460000000	the epsilon
0.1460000000	the transport
0.1460000000	the actors
0.1460000000	associated to
0.1460000000	made available
0.1460000000	the appropriate
0.1460000000	crucial in
0.1460000000	the stereo
0.1460000000	do so
0.1460000000	the rkhs
0.1460000000	the auxiliary
0.1460000000	afforded by
0.1460000000	clusters with
0.1460000000	not available
0.1460000000	not just
0.1460000000	the hyperbolic
0.1460000000	some other
0.1460000000	the conceptual
0.1460000000	the neighbourhood
0.1460000000	the sequences
0.1460000000	the exponent
0.1460000000	m estimator
0.1460000000	known about
0.1460000000	all three
0.1460000000	algebra and
0.1460000000	all other
0.1460000000	such multi
0.1460000000	of omega
0.1460000000	bound and
0.1460000000	back to
0.1460000000	only on
0.1460000000	i argue
0.1460000000	of equilibrium
0.1460000000	of cross
0.1460000000	of other
0.1460000000	top of
0.1460000000	of observed
0.1460000000	of dominant
0.1460000000	contrasted with
0.1460000000	of layers
0.1460000000	of coefficients
0.1460000000	of many
0.1460000000	of norms
0.1460000000	of approximation
0.1460000000	of artistic
0.1460000000	of aircraft
0.1460000000	of email
0.1460000000	of nonmonotonic
0.1460000000	but rather
0.1460000000	of people
0.1460000000	messages to
0.1460000000	seem to
0.1460000000	seminal work
0.1460000000	spread across
0.1460000000	thus far
0.1460000000	any given
0.1460000000	to see
0.1460000000	to consider
0.1460000000	to keep
0.1460000000	to fill
0.1460000000	an overall
0.1460000000	these three
0.1460000000	while still
0.1460000000	also describe
0.1460000000	by iteratively
0.1460000000	by depth
0.1460000000	done on
0.1460000000	also provides
0.1460000000	between different
0.1460000000	at all
0.1460000000	further show
0.1460000000	done in
0.1460000000	errors of
0.1460000000	measures to
0.1460000000	non zero
0.1460000000	evolution de
0.1460000000	million people
0.1460000000	non english
0.1460000000	way of
0.1460000000	far from
0.1460000000	want to
0.1460000000	across all
0.1460000000	with imbalanced
0.1460000000	with two
0.1460000000	and uses
0.1460000000	with proper
0.1460000000	and or
0.1460000000	and allows
0.1460000000	and bidirectional
0.1460000000	and consequently
0.1460000000	even more
0.1460000000	and bag
0.1460000000	and give
0.1460000000	hierarchical and
0.1460000000	come with
0.1460000000	and make
0.1460000000	runs at
0.1460000000	multiclass and
0.1460000000	alignments of
0.1460000000	away from
0.1460000000	four different
0.1460000000	a computer
0.1460000000	or image
0.1460000000	under various
0.1460000000	a mean
0.1460000000	a thorough
0.1460000000	in mammograms
0.1460000000	a brief
0.1460000000	or other
0.1460000000	in different
0.1460000000	in detail
0.1460000000	a known
0.1460000000	in various
0.1460000000	a self
0.1460000000	without using
0.1460000000	a corresponding
0.1460000000	in indian
0.1460000000	people s
0.1460000000	a testing
0.1450000000	the model parameters and
0.1450000000	in pattern recognition and
0.1450000000	the art algorithms on
0.1450000000	the problem of matching
0.1450000000	the proposed approach to
0.1450000000	the context of deep
0.1450000000	of training data and
0.1450000000	the same function
0.1450000000	the approach for
0.1450000000	the same method
0.1450000000	the hidden variables
0.1450000000	the marginal probability
0.1450000000	the reduction in
0.1450000000	the sentiment analysis
0.1450000000	the computational and
0.1450000000	the same identity
0.1450000000	the representation and
0.1450000000	the data as
0.1450000000	k means for
0.1450000000	do not know
0.1450000000	of evidence in
0.1450000000	the task in
0.1450000000	the image domain
0.1450000000	the study and
0.1450000000	the theory and
0.1450000000	to adversarial attacks
0.1450000000	the target variable
0.1450000000	and temporal information
0.1450000000	no loss in
0.1450000000	and techniques for
0.1450000000	the face and
0.1450000000	both classification and
0.1450000000	of words as
0.1450000000	of models for
0.1450000000	a classification of
0.1450000000	time algorithm for
0.1450000000	the literature to
0.1450000000	the performance with
0.1450000000	a data structure
0.1450000000	for bayesian optimization
0.1450000000	novel algorithm to
0.1450000000	on images with
0.1450000000	of concepts and
0.1450000000	the framework on
0.1450000000	the model using
0.1450000000	the framework to
0.1450000000	changes in
0.1450000000	tended to
0.1450000000	this new
0.1450000000	used by
0.1450000000	then used
0.1450000000	that allows
0.1450000000	work on
0.1450000000	this sample
0.1450000000	this allows
0.1450000000	both of
0.1450000000	likely to
0.1450000000	this way
0.1450000000	taken from
0.1450000000	this parameter
0.1450000000	much of
0.1450000000	different from
0.1450000000	into three
0.1450000000	several other
0.1450000000	two modalities
0.1450000000	as possible
0.1450000000	three different
0.1450000000	into several
0.1450000000	neighbors of
0.1450000000	each language
0.1450000000	unlikely to
0.1450000000	mining to
0.1450000000	on three
0.1450000000	so as
0.1450000000	many of
0.1450000000	for all
0.1450000000	on two
0.1450000000	however there
0.1450000000	on several
0.1450000000	for motion
0.1450000000	for many
0.1450000000	from other
0.1450000000	on both
0.1450000000	for part
0.1450000000	for contour
0.1450000000	from game
0.1450000000	for such
0.1450000000	for both
0.1450000000	the discount
0.1450000000	the cone
0.1450000000	the lead
0.1450000000	the travel
0.1450000000	the probe
0.1450000000	the r
0.1450000000	not yet
0.1450000000	the cp
0.1450000000	the associated
0.1450000000	not all
0.1450000000	the l2
0.1450000000	not always
0.1450000000	the above
0.1450000000	the right
0.1450000000	the next
0.1450000000	the way
0.1450000000	the dendritic
0.1450000000	the third
0.1450000000	made by
0.1450000000	m s
0.1450000000	all of
0.1450000000	known to
0.1450000000	found to
0.1450000000	sets in
0.1450000000	needs to
0.1450000000	elements and
0.1450000000	using only
0.1450000000	using group
0.1450000000	found in
0.1450000000	necessary for
0.1450000000	system for
0.1450000000	all features
0.1450000000	all possible
0.1450000000	e and
0.1450000000	of lesion
0.1450000000	useful in
0.1450000000	given by
0.1450000000	almost all
0.1450000000	of several
0.1450000000	of various
0.1450000000	only one
0.1450000000	of tv
0.1450000000	but not
0.1450000000	of all
0.1450000000	of both
0.1450000000	of or
0.1450000000	to give
0.1450000000	any other
0.1450000000	parameter of
0.1450000000	allow for
0.1450000000	described in
0.1450000000	value of
0.1450000000	to take
0.1450000000	to specify
0.1450000000	to better
0.1450000000	to show
0.1450000000	to other
0.1450000000	to reasoning
0.1450000000	re weighted
0.1450000000	to allow
0.1450000000	to help
0.1450000000	to time
0.1450000000	to describe
0.1450000000	to clinical
0.1450000000	possible to
0.1450000000	cascade of
0.1450000000	done by
0.1450000000	allows for
0.1450000000	by considering
0.1450000000	between two
0.1450000000	at most
0.1450000000	mechanisms of
0.1450000000	intended for
0.1450000000	someone s
0.1450000000	across different
0.1450000000	n right
0.1450000000	those of
0.1450000000	and proximal
0.1450000000	n from
0.1450000000	and describe
0.1450000000	and t
0.1450000000	and hence
0.1450000000	and non
0.1450000000	even with
0.1450000000	with people
0.1450000000	and even
0.1450000000	and use
0.1450000000	and also
0.1450000000	with different
0.1450000000	with other
0.1450000000	with only
0.1450000000	and therefore
0.1450000000	come from
0.1450000000	and yet
0.1450000000	and b
0.1450000000	and provides
0.1450000000	and find
0.1450000000	interest in
0.1450000000	even for
0.1450000000	even in
0.1450000000	or even
0.1450000000	in systems
0.1450000000	under different
0.1450000000	available for
0.1450000000	available in
0.1450000000	especially in
0.1450000000	or not
0.1450000000	a vertex
0.1450000000	a useful
0.1450000000	a gene
0.1450000000	a hash
0.1450000000	a second
0.1450000000	a better
0.1450000000	a full
0.1450000000	a certain
0.1450000000	in such
0.1450000000	a module
0.1450000000	in hindi
0.1450000000	in both
0.1450000000	in matrix
0.1450000000	a split
0.1450000000	a sequential
0.1450000000	a different
0.1450000000	a whole
0.1450000000	especially for
0.1450000000	textures and
0.1440000000	student s t distribution
0.1440000000	the loss function of
0.1440000000	a new framework called
0.1440000000	the estimates of
0.1440000000	loss based on
0.1440000000	learning process and
0.1440000000	the object s
0.1440000000	of face and
0.1440000000	the robot to
0.1440000000	object detection using
0.1440000000	genetic algorithm and
0.1440000000	approximation error of
0.1440000000	learning methods in
0.1440000000	proposed model with
0.1440000000	the past and
0.1440000000	both learning and
0.1440000000	graph based on
0.1440000000	f1 score and
0.1440000000	of tasks in
0.1440000000	a novel hierarchical
0.1440000000	this model to
0.1440000000	in one or
0.1440000000	online learning in
0.1440000000	s law for
0.1440000000	object segmentation and
0.1440000000	in training deep
0.1440000000	or better than
0.1440000000	in different languages
0.1440000000	the other and
0.1440000000	the structure in
0.1440000000	the points of
0.1440000000	and discrete variables
0.1440000000	of logic programs
0.1440000000	the next step
0.1440000000	the parameters and
0.1440000000	the technique to
0.1440000000	the visual system
0.1440000000	topic model for
0.1440000000	a policy from
0.1440000000	the analysis and
0.1440000000	the camera and
0.1440000000	the network as
0.1440000000	each other to
0.1440000000	the sets of
0.1440000000	a human in
0.1440000000	the text of
0.1440000000	in data to
0.1440000000	o sqrt n
0.1440000000	the structures of
0.1440000000	action classification and
0.1440000000	used to
0.1440000000	one example
0.1440000000	both sides
0.1440000000	use of
0.1440000000	pixels and
0.1440000000	as k
0.1440000000	realistic 3d
0.1440000000	out of
0.1440000000	edges to
0.1440000000	nlp and
0.1440000000	condition and
0.1440000000	the following
0.1440000000	the full
0.1440000000	the overall
0.1440000000	some of
0.1440000000	using less
0.1440000000	classes with
0.1440000000	embedding in
0.1440000000	variation and
0.1440000000	of logical
0.1440000000	given in
0.1440000000	only if
0.1440000000	of histological
0.1440000000	of such
0.1440000000	i of
0.1440000000	of domains
0.1440000000	only needs
0.1440000000	of known
0.1440000000	identity and
0.1440000000	to become
0.1440000000	to imitate
0.1440000000	to day
0.1440000000	to use
0.1440000000	adaptation for
0.1440000000	to prepare
0.1440000000	noise from
0.1440000000	while at
0.1440000000	because of
0.1440000000	briefly describe
0.1440000000	also show
0.1440000000	dataset using
0.1440000000	mdps with
0.1440000000	and allow
0.1440000000	non submodular
0.1440000000	concrete example
0.1440000000	and second
0.1440000000	and then
0.1440000000	and output
0.1440000000	and update
0.1440000000	and thus
0.1440000000	and show
0.1440000000	and other
0.1440000000	and yields
0.1440000000	a way
0.1440000000	once trained
0.1440000000	a necessary
0.1440000000	a more
0.1440000000	1 m
0.1440000000	under two
0.1430000000	in natural language processing and
0.1430000000	applications in computer vision
0.1430000000	algorithm does not require
0.1430000000	approach does not require
0.1430000000	applications such as image
0.1430000000	the end to end
0.1430000000	applications such as face
0.1430000000	method does not require
0.1430000000	task in computer vision
0.1430000000	research in computer vision
0.1430000000	tasks such as classification
0.1430000000	large amount of unlabeled
0.1430000000	tasks such as object
0.1430000000	small amount of data
0.1430000000	large amount of information
0.1430000000	topic in computer vision
0.1430000000	advances in computer vision
0.1430000000	problems such as image
0.1430000000	in end to end
0.1430000000	experiments on two benchmark
0.1430000000	experiments on two challenging
0.1430000000	propose to use deep
0.1430000000	field of computer vision
0.1430000000	model does not require
0.1430000000	the non convex optimization
0.1430000000	the number of topics
0.1430000000	the number of distinct
0.1430000000	huge amount of data
0.1430000000	widely used in practice
0.1430000000	to converge in
0.1430000000	an area of
0.1430000000	the hidden states
0.1430000000	matrix factorization with
0.1430000000	the feature level
0.1430000000	the approach with
0.1430000000	the second order
0.1430000000	factor of 2
0.1430000000	a network and
0.1430000000	representation based on
0.1430000000	able to take
0.1430000000	methods for 3d
0.1430000000	into low rank
0.1430000000	optimization method for
0.1430000000	such as motion
0.1430000000	an agent s
0.1430000000	a novel feature
0.1430000000	a given data
0.1430000000	the existing approaches
0.1430000000	the first class
0.1430000000	to such problems
0.1430000000	input data to
0.1430000000	segmentation of 3d
0.1430000000	a new metric
0.1430000000	network models and
0.1430000000	latent space to
0.1430000000	learning based on
0.1430000000	the fuzzy logic
0.1430000000	the statistical analysis
0.1430000000	for out of
0.1430000000	dimensional space of
0.1430000000	a model to
0.1430000000	a theory for
0.1430000000	based on 3d
0.1430000000	formal model of
0.1430000000	the algorithm by
0.1430000000	depth estimation using
0.1430000000	the dimension and
0.1430000000	the original and
0.1430000000	the features from
0.1430000000	and deployment of
0.1430000000	a single network
0.1430000000	the answer sets
0.1430000000	first place in
0.1430000000	this to
0.1430000000	limitations 1
0.1430000000	algorithm 1
0.1430000000	size 1
0.1430000000	model 1
0.1430000000	sub graphs
0.1430000000	models 1
0.1430000000	correlation of
0.1430000000	that model
0.1430000000	still not
0.1430000000	this database
0.1430000000	turing s
0.1430000000	problems 1
0.1430000000	scale 3d
0.1430000000	scale of
0.1430000000	s law
0.1430000000	help in
0.1430000000	among users
0.1430000000	first set
0.1430000000	single 2d
0.1430000000	s model
0.1430000000	3d representation
0.1430000000	several new
0.1430000000	dimensional 2d
0.1430000000	as feature
0.1430000000	as energy
0.1430000000	two standard
0.1430000000	two examples
0.1430000000	steps 1
0.1430000000	dimensional 3d
0.1430000000	on semantic
0.1430000000	svm on
0.1430000000	properties 1
0.1430000000	for pomdps
0.1430000000	expected time
0.1430000000	accurate 3d
0.1430000000	for integrated
0.1430000000	each filter
0.1430000000	on popular
0.1430000000	for discrete
0.1430000000	on objects
0.1430000000	for programming
0.1430000000	on rough
0.1430000000	on optimization
0.1430000000	invariance and
0.1430000000	for dnns
0.1430000000	same scene
0.1430000000	for incremental
0.1430000000	for variables
0.1430000000	from bayesian
0.1430000000	from tracking
0.1430000000	from compressed
0.1430000000	for satellite
0.1430000000	each state
0.1430000000	for incomplete
0.1430000000	negation and
0.1430000000	the branching
0.1430000000	complete 3d
0.1430000000	the bilinear
0.1430000000	the entries
0.1430000000	the updates
0.1430000000	the multispectral
0.1430000000	the messages
0.1430000000	the lifted
0.1430000000	the minimizer
0.1430000000	the databases
0.1430000000	the replica
0.1430000000	the variant
0.1430000000	the associative
0.1430000000	the border
0.1430000000	the capture
0.1430000000	the medium
0.1430000000	clusters to
0.1430000000	the annotations
0.1430000000	the emotional
0.1430000000	the post
0.1430000000	the translations
0.1430000000	the smaller
0.1430000000	the irregular
0.1430000000	the attacks
0.1430000000	the atoms
0.1430000000	the scenarios
0.1430000000	the cnf
0.1430000000	the interpolated
0.1430000000	not conform
0.1430000000	some input
0.1430000000	contributions 1
0.1430000000	methods 1
0.1430000000	generic 3d
0.1430000000	pooling in
0.1430000000	such rules
0.1430000000	proposed 3d
0.1430000000	such content
0.1430000000	bigger than
0.1430000000	including 1
0.1430000000	using semi
0.1430000000	such events
0.1430000000	components 1
0.1430000000	all methods
0.1430000000	such queries
0.1430000000	of regularization
0.1430000000	of perception
0.1430000000	of algorithm
0.1430000000	of consumer
0.1430000000	of anns
0.1430000000	useful to
0.1430000000	of pre
0.1430000000	ways 1
0.1430000000	of observation
0.1430000000	of magnetic
0.1430000000	of hypergraphs
0.1430000000	of colour
0.1430000000	of companies
0.1430000000	of predictors
0.1430000000	of financial
0.1430000000	of predictions
0.1430000000	of principal
0.1430000000	of sign
0.1430000000	of kl
0.1430000000	of instance
0.1430000000	of prototypes
0.1430000000	of stability
0.1430000000	advantages 1
0.1430000000	rests on
0.1430000000	of emotional
0.1430000000	of nn
0.1430000000	of ratings
0.1430000000	of eas
0.1430000000	of numerical
0.1430000000	of contrastive
0.1430000000	of simulation
0.1430000000	more closely
0.1430000000	of plans
0.1430000000	paper 1
0.1430000000	signature and
0.1430000000	data 2
0.1430000000	robust 3d
0.1430000000	observations 1
0.1430000000	include 1
0.1430000000	trees in
0.1430000000	an uncertainty
0.1430000000	an annotated
0.1430000000	an indirect
0.1430000000	to clean
0.1430000000	to save
0.1430000000	to appearance
0.1430000000	to specific
0.1430000000	to document
0.1430000000	to representation
0.1430000000	an exciting
0.1430000000	to prediction
0.1430000000	to motion
0.1430000000	to value
0.1430000000	these architectures
0.1430000000	mean opinion
0.1430000000	task 3
0.1430000000	features 2
0.1430000000	time between
0.1430000000	task 5
0.1430000000	task 4
0.1430000000	by ell
0.1430000000	by online
0.1430000000	by decision
0.1430000000	also investigated
0.1430000000	between feature
0.1430000000	tasks 1
0.1430000000	by n
0.1430000000	task 1
0.1430000000	questions 1
0.1430000000	and constant
0.1430000000	and em
0.1430000000	with dropout
0.1430000000	and classifiers
0.1430000000	and context
0.1430000000	and search
0.1430000000	and bilinear
0.1430000000	and english
0.1430000000	with negligible
0.1430000000	and conditional
0.1430000000	and not
0.1430000000	with occlusion
0.1430000000	with fitness
0.1430000000	and task
0.1430000000	challenges 1
0.1430000000	and planning
0.1430000000	and translation
0.1430000000	and great
0.1430000000	a nested
0.1430000000	in imagenet
0.1430000000	in h
0.1430000000	problem 1
0.1430000000	under segmentation
0.1430000000	a surface
0.1430000000	a plug
0.1430000000	a categorical
0.1430000000	a passage
0.1430000000	in cluster
0.1430000000	a possibilistic
0.1430000000	in geometric
0.1430000000	a retrieval
0.1430000000	a fractional
0.1430000000	a variance
0.1430000000	in sar
0.1430000000	in s
0.1430000000	in music
0.1430000000	in cardiac
0.1430000000	d camera
0.1430000000	a stacked
0.1430000000	in network
0.1430000000	in query
0.1430000000	a match
0.1430000000	people with
0.1430000000	people tracking
0.1430000000	in health
0.1430000000	r g
0.1430000000	reliant on
0.1420000000	a wide range of applications in
0.1420000000	on par with or
0.1420000000	over previous state of
0.1420000000	the number of pixels
0.1420000000	the task of image
0.1420000000	very effective in
0.1420000000	one or two
0.1420000000	3d human motion
0.1420000000	a fundamental question
0.1420000000	an acoustic model
0.1420000000	the mnist and
0.1420000000	of convolutional layers
0.1420000000	the previous state
0.1420000000	of deep networks
0.1420000000	and big data
0.1420000000	the learner s
0.1420000000	of hyperspectral data
0.1420000000	of random forests
0.1420000000	the optimal performance
0.1420000000	a new solution
0.1420000000	on image data
0.1420000000	of training images
0.1420000000	for network data
0.1420000000	for deep learning
0.1420000000	a single feature
0.1420000000	the internet and
0.1420000000	the unknown function
0.1420000000	an adversarial training
0.1420000000	and transfer learning
0.1420000000	the demand for
0.1420000000	web and
0.1420000000	this bias
0.1420000000	that given
0.1420000000	then discuss
0.1420000000	other images
0.1420000000	perplexity of
0.1420000000	different learning
0.1420000000	p value
0.1420000000	two class
0.1420000000	3d geometric
0.1420000000	too expensive
0.1420000000	same word
0.1420000000	each year
0.1420000000	on bidirectional
0.1420000000	each sensor
0.1420000000	for ad
0.1420000000	on six
0.1420000000	horizon of
0.1420000000	the deformation
0.1420000000	the default
0.1420000000	the streaming
0.1420000000	the japanese
0.1420000000	filter and
0.1420000000	the fit
0.1420000000	the destination
0.1420000000	the corrected
0.1420000000	the table
0.1420000000	the spatiotemporal
0.1420000000	vagueness and
0.1420000000	the fourth
0.1420000000	make sure
0.1420000000	carried by
0.1420000000	context to
0.1420000000	svhn and
0.1420000000	series from
0.1420000000	through time
0.1420000000	binary and
0.1420000000	defects in
0.1420000000	cnn as
0.1420000000	of properties
0.1420000000	of change
0.1420000000	of risk
0.1420000000	of posterior
0.1420000000	of topology
0.1420000000	sentiment towards
0.1420000000	of combination
0.1420000000	only positive
0.1420000000	metrics with
0.1420000000	foundations for
0.1420000000	these databases
0.1420000000	these local
0.1420000000	approaches with
0.1420000000	to new
0.1420000000	tries to
0.1420000000	genre of
0.1420000000	scores on
0.1420000000	also used
0.1420000000	further provide
0.1420000000	part localization
0.1420000000	articles from
0.1420000000	and material
0.1420000000	and bad
0.1420000000	and content
0.1420000000	and suggests
0.1420000000	and causal
0.1420000000	and performing
0.1420000000	four decades
0.1420000000	in chinese
0.1420000000	stands for
0.1420000000	a super
0.1420000000	in sparse
0.1420000000	a chinese
0.1420000000	a recognition
0.1420000000	in peer
0.1420000000	or weakly
0.1420000000	a mesh
0.1420000000	learns from
0.1410000000	the training process and
0.1410000000	of several state of
0.1410000000	the problem of unsupervised
0.1410000000	a variety of models
0.1410000000	in terms of estimation
0.1410000000	first order logic and
0.1410000000	to shed light on
0.1410000000	of cnn based
0.1410000000	the changes in
0.1410000000	l 0 norm
0.1410000000	non convex functions
0.1410000000	the second model
0.1410000000	the data size
0.1410000000	used to search
0.1410000000	and non linear
0.1410000000	the detection accuracy
0.1410000000	to learn semantic
0.1410000000	a novel pooling
0.1410000000	a learning method
0.1410000000	time series in
0.1410000000	most state of
0.1410000000	information extraction ie
0.1410000000	each component of
0.1410000000	with other existing
0.1410000000	and to provide
0.1410000000	a new distributed
0.1410000000	a new kernel
0.1410000000	a 1 1
0.1410000000	value of information
0.1410000000	data analysis and
0.1410000000	of object categories
0.1410000000	the next iteration
0.1410000000	the environment in
0.1410000000	of belief functions
0.1410000000	the mean field
0.1410000000	does not use
0.1410000000	the spectral norm
0.1410000000	the linear regression
0.1410000000	the system also
0.1410000000	the big data
0.1410000000	evaluation method for
0.1410000000	a human face
0.1410000000	the art approach
0.1410000000	test accuracy of
0.1410000000	free of
0.1410000000	spaces of
0.1410000000	behavior to
0.1410000000	transfer of
0.1410000000	this resource
0.1410000000	new measure
0.1410000000	sub structures
0.1410000000	layer as
0.1410000000	this uncertainty
0.1410000000	norm for
0.1410000000	this error
0.1410000000	regression as
0.1410000000	negative side
0.1410000000	than human
0.1410000000	as fuzzy
0.1410000000	as support
0.1410000000	as video
0.1410000000	six different
0.1410000000	for horn
0.1410000000	for mdps
0.1410000000	depend upon
0.1410000000	however if
0.1410000000	from crowd
0.1410000000	for stationary
0.1410000000	for tensor
0.1410000000	on wavelet
0.1410000000	for coding
0.1410000000	each attribute
0.1410000000	on words
0.1410000000	for gaussian
0.1410000000	for in
0.1410000000	control in
0.1410000000	from end
0.1410000000	for policy
0.1410000000	from user
0.1410000000	if p
0.1410000000	reliability and
0.1410000000	the report
0.1410000000	the gallery
0.1410000000	the radon
0.1410000000	translations of
0.1410000000	the correspondences
0.1410000000	the tagging
0.1410000000	the load
0.1410000000	the 4
0.1410000000	the mt
0.1410000000	reviews and
0.1410000000	the phone
0.1410000000	the revenue
0.1410000000	not suffice
0.1410000000	the independent
0.1410000000	instances with
0.1410000000	the company
0.1410000000	the million
0.1410000000	the sensorimotor
0.1410000000	the successive
0.1410000000	the voxel
0.1410000000	the imbalance
0.1410000000	the cellular
0.1410000000	the integer
0.1410000000	the surgical
0.1410000000	the preprocessing
0.1410000000	variability and
0.1410000000	refined by
0.1410000000	annotations in
0.1410000000	over 1
0.1410000000	observation of
0.1410000000	such embeddings
0.1410000000	such bounds
0.1410000000	using context
0.1410000000	convenient way
0.1410000000	structures for
0.1410000000	more data
0.1410000000	matching of
0.1410000000	of occlusions
0.1410000000	of bidirectional
0.1410000000	of sum
0.1410000000	of inception
0.1410000000	of business
0.1410000000	generated in
0.1410000000	co segmentation
0.1410000000	of fitness
0.1410000000	of answers
0.1410000000	of program
0.1410000000	of recursive
0.1410000000	of convnets
0.1410000000	of supervision
0.1410000000	of four
0.1410000000	of keywords
0.1410000000	of adaboost
0.1410000000	of regions
0.1410000000	of abnormal
0.1410000000	of clause
0.1410000000	of light
0.1410000000	of ms
0.1410000000	search with
0.1410000000	subspace and
0.1410000000	ideas and
0.1410000000	operators with
0.1410000000	class for
0.1410000000	least 1
0.1410000000	dictated by
0.1410000000	to visible
0.1410000000	formation and
0.1410000000	to language
0.1410000000	to predictive
0.1410000000	to weakly
0.1410000000	noise than
0.1410000000	to tracking
0.1410000000	these objects
0.1410000000	findings indicate
0.1410000000	these interactions
0.1410000000	these axioms
0.1410000000	to training
0.1410000000	alleviated by
0.1410000000	integration and
0.1410000000	likelihood and
0.1410000000	also able
0.1410000000	by word
0.1410000000	by first
0.1410000000	updates to
0.1410000000	between points
0.1410000000	graph or
0.1410000000	by probabilistic
0.1410000000	learnable in
0.1410000000	predictions in
0.1410000000	with probabilistic
0.1410000000	activity and
0.1410000000	well in
0.1410000000	even after
0.1410000000	and field
0.1410000000	and pseudo
0.1410000000	and 0
0.1410000000	with such
0.1410000000	and decoder
0.1410000000	and acoustic
0.1410000000	and lipschitz
0.1410000000	and slam
0.1410000000	a pruning
0.1410000000	without replacement
0.1410000000	a dcnn
0.1410000000	in intrusion
0.1410000000	a nonnegative
0.1410000000	available as
0.1410000000	in state
0.1410000000	in gans
0.1410000000	in forecasting
0.1410000000	in sample
0.1410000000	in dnns
0.1410000000	in pedestrian
0.1410000000	a geometry
0.1410000000	1 penalty
0.1410000000	a cornerstone
0.1410000000	styles and
0.1410000000	appeal to
0.1400000000	amount of data to
0.1400000000	the approach on
0.1400000000	an image to
0.1400000000	as input to
0.1400000000	experiments on three
0.1400000000	based algorithm for
0.1400000000	a new clustering
0.1400000000	for use in
0.1400000000	and learning of
0.1400000000	the wild lfw
0.1400000000	prior work on
0.1400000000	a growing need
0.1400000000	a graph of
0.1400000000	the classes of
0.1400000000	in context of
0.1400000000	descriptors such as
0.1400000000	the performance for
0.1400000000	u net architecture
0.1400000000	the population of
0.1400000000	of objects in
0.1400000000	facial expressions and
0.1400000000	work for
0.1400000000	model at
0.1400000000	algorithm by
0.1400000000	descriptors with
0.1400000000	aus and
0.1400000000	constraints to
0.1400000000	convnet for
0.1400000000	asp and
0.1400000000	restoration of
0.1400000000	2 r
0.1400000000	distributional and
0.1400000000	communities of
0.1400000000	assumptions regarding
0.1400000000	ranges from
0.1400000000	covariance of
0.1400000000	previous time
0.1400000000	for programs
0.1400000000	on inverse
0.1400000000	domain with
0.1400000000	2d shapes
0.1400000000	sp system
0.1400000000	localisation of
0.1400000000	demosaicing and
0.1400000000	expression of
0.1400000000	the scanning
0.1400000000	not much
0.1400000000	x by
0.1400000000	the quotient
0.1400000000	the improvements
0.1400000000	dictionary from
0.1400000000	programming in
0.1400000000	contrast of
0.1400000000	gas to
0.1400000000	paper and
0.1400000000	terms with
0.1400000000	structures to
0.1400000000	terms to
0.1400000000	cnn on
0.1400000000	search on
0.1400000000	diffusion of
0.1400000000	trees as
0.1400000000	parsing in
0.1400000000	parsing with
0.1400000000	vertices and
0.1400000000	aspects and
0.1400000000	asr system
0.1400000000	soft and
0.1400000000	tool and
0.1400000000	various disciplines
0.1400000000	questions for
0.1400000000	melanoma and
0.1400000000	and d
0.1400000000	games from
0.1400000000	pairs with
0.1400000000	text as
0.1400000000	networks over
0.1400000000	scenes to
0.1400000000	paths to
0.1400000000	paths and
0.1400000000	loss on
0.1400000000	in l
0.1400000000	hierarchy and
0.1400000000	a pos
0.1400000000	a flow
0.1400000000	arguments and
0.1390000000	and does not rely on
0.1390000000	of deep neural networks for
0.1390000000	learning as well as
0.1390000000	a promising way to
0.1390000000	the art approaches for
0.1390000000	becomes more and more
0.1390000000	a subset of features
0.1390000000	the proposed algorithms on
0.1390000000	the semi supervised learning
0.1390000000	performance to state of
0.1390000000	an automated method for
0.1390000000	become more and more
0.1390000000	for zero shot learning
0.1390000000	very challenging due to
0.1390000000	the feature map
0.1390000000	and few shot
0.1390000000	in topic modeling
0.1390000000	many optimization problems
0.1390000000	to hold for
0.1390000000	a natural image
0.1390000000	a solution for
0.1390000000	the optimal strategy
0.1390000000	possible to use
0.1390000000	the proposed strategy
0.1390000000	a neural model
0.1390000000	the seminal work
0.1390000000	those obtained by
0.1390000000	a logic based
0.1390000000	the domain specific
0.1390000000	and sometimes even
0.1390000000	the challenges in
0.1390000000	the art network
0.1390000000	this prior
0.1390000000	one agent
0.1390000000	codes in
0.1390000000	that most
0.1390000000	one modality
0.1390000000	algorithm first
0.1390000000	knowledge for
0.1390000000	knowledge using
0.1390000000	algorithm into
0.1390000000	regression to
0.1390000000	placed in
0.1390000000	conforms to
0.1390000000	registration using
0.1390000000	curve for
0.1390000000	much richer
0.1390000000	as translation
0.1390000000	stem from
0.1390000000	preferences on
0.1390000000	descriptions in
0.1390000000	on analog
0.1390000000	order on
0.1390000000	from networks
0.1390000000	reuse of
0.1390000000	hashing with
0.1390000000	sharing between
0.1390000000	for news
0.1390000000	for biological
0.1390000000	on functional
0.1390000000	inconsistency in
0.1390000000	descriptor of
0.1390000000	edges from
0.1390000000	voting and
0.1390000000	the micro
0.1390000000	the correlated
0.1390000000	posterior over
0.1390000000	the leader
0.1390000000	dictionary for
0.1390000000	group and
0.1390000000	channel and
0.1390000000	scans of
0.1390000000	attention with
0.1390000000	of states
0.1390000000	of metadata
0.1390000000	of invariant
0.1390000000	of distance
0.1390000000	built with
0.1390000000	metrics of
0.1390000000	passes over
0.1390000000	tweets for
0.1390000000	reconstruction in
0.1390000000	mode and
0.1390000000	self calibration
0.1390000000	these sequences
0.1390000000	these different
0.1390000000	smoothing and
0.1390000000	by following
0.1390000000	unit for
0.1390000000	training from
0.1390000000	scores by
0.1390000000	meaning to
0.1390000000	at url
0.1390000000	version and
0.1390000000	resnet and
0.1390000000	priors on
0.1390000000	and experts
0.1390000000	well on
0.1390000000	even better
0.1390000000	and associated
0.1390000000	and latent
0.1390000000	gaussian and
0.1390000000	interest for
0.1390000000	transform on
0.1390000000	tests to
0.1390000000	atoms in
0.1390000000	maps from
0.1390000000	denoising via
0.1390000000	modeled with
0.1390000000	a fact
0.1390000000	in ensemble
0.1380000000	a novel method called
0.1380000000	using deep learning and
0.1380000000	three orders of magnitude
0.1380000000	the agent to
0.1380000000	of work on
0.1380000000	for person re
0.1380000000	an optimal policy
0.1380000000	and more importantly
0.1380000000	the encoder and
0.1380000000	the full data
0.1380000000	the joint representation
0.1380000000	each user s
0.1380000000	two kinds of
0.1380000000	a function f
0.1380000000	a different approach
0.1380000000	the result shows
0.1380000000	not suitable for
0.1380000000	tensor singular value
0.1380000000	the developed algorithm
0.1380000000	this study presents
0.1380000000	experimental and
0.1380000000	used and
0.1380000000	both on
0.1380000000	ones and
0.1380000000	convex non
0.1380000000	different classifiers
0.1380000000	as features
0.1380000000	two way
0.1380000000	parser with
0.1380000000	for b
0.1380000000	for c
0.1380000000	k fold
0.1380000000	however despite
0.1380000000	not enough
0.1380000000	the horizontal
0.1380000000	the per
0.1380000000	over several
0.1380000000	such constraints
0.1380000000	side of
0.1380000000	more consistent
0.1380000000	multiplied by
0.1380000000	only to
0.1380000000	to say
0.1380000000	to register
0.1380000000	while others
0.1380000000	to elucidate
0.1380000000	tip of
0.1380000000	density to
0.1380000000	well to
0.1380000000	and hierarchy
0.1380000000	and better
0.1380000000	and many
0.1380000000	and processing
0.1380000000	eigenvector of
0.1380000000	variables using
0.1380000000	a chain
0.1370000000	in domains such as
0.1370000000	a genetic algorithm for
0.1370000000	the training data set
0.1370000000	against state of
0.1370000000	and representation learning
0.1370000000	in large networks
0.1370000000	the data using
0.1370000000	local structure of
0.1370000000	to topic modeling
0.1370000000	and inter class
0.1370000000	the transformation matrix
0.1370000000	the image sequence
0.1370000000	gradient descent on
0.1370000000	data and for
0.1370000000	different data sources
0.1370000000	a deep model
0.1370000000	the generated samples
0.1370000000	the statistical model
0.1370000000	the design space
0.1370000000	a hybrid method
0.1370000000	a graph cut
0.1370000000	segmentation methods for
0.1370000000	the phrase based
0.1370000000	the input output
0.1370000000	on neural networks
0.1370000000	and unsupervised learning
0.1370000000	a local minimum
0.1370000000	estimators and
0.1370000000	relatively large
0.1370000000	signals by
0.1370000000	then proceed
0.1370000000	models so
0.1370000000	box of
0.1370000000	other researchers
0.1370000000	sentence and
0.1370000000	matrices as
0.1370000000	much worse
0.1370000000	pixels by
0.1370000000	several challenges
0.1370000000	equation of
0.1370000000	3 sat
0.1370000000	for robot
0.1370000000	for interpretability
0.1370000000	biometric system
0.1370000000	modalities in
0.1370000000	the comparative
0.1370000000	signal with
0.1370000000	tracking with
0.1370000000	matrix on
0.1370000000	sgd on
0.1370000000	attributes in
0.1370000000	convolutions to
0.1370000000	iteration with
0.1370000000	memory with
0.1370000000	provided as
0.1370000000	of relations
0.1370000000	sentiment and
0.1370000000	of physical
0.1370000000	minima in
0.1370000000	lead time
0.1370000000	tweets and
0.1370000000	real value
0.1370000000	to misclassify
0.1370000000	an acoustic
0.1370000000	measure with
0.1370000000	functions by
0.1370000000	valence and
0.1370000000	time bidding
0.1370000000	time spent
0.1370000000	time cost
0.1370000000	conception of
0.1370000000	by relating
0.1370000000	also showed
0.1370000000	identification system
0.1370000000	by subtracting
0.1370000000	task to
0.1370000000	divergence in
0.1370000000	pixel and
0.1370000000	grid to
0.1370000000	far fewer
0.1370000000	non verbal
0.1370000000	a prominent
0.1370000000	a sophisticated
0.1370000000	a duality
0.1370000000	r of
0.1360000000	deep neural networks for
0.1360000000	learning method based on
0.1360000000	a novel technique for
0.1360000000	machine learning techniques for
0.1360000000	fixed point of
0.1360000000	an image classification
0.1360000000	belief networks and
0.1360000000	and area under
0.1360000000	motion segmentation and
0.1360000000	more precise and
0.1360000000	of neural networks
0.1360000000	a cnn trained
0.1360000000	a weighted graph
0.1360000000	and constraint programming
0.1360000000	a subject of
0.1360000000	well studied in
0.1360000000	temporal relations between
0.1360000000	in big data
0.1360000000	for topic modeling
0.1360000000	the original features
0.1360000000	sentences based on
0.1360000000	the original model
0.1360000000	for 3d reconstruction
0.1360000000	this question in
0.1360000000	those obtained with
0.1360000000	in online learning
0.1360000000	the highly non
0.1360000000	feature learning for
0.1360000000	the new representation
0.1360000000	the contextual bandit
0.1360000000	system s performance
0.1360000000	the deep convolutional
0.1360000000	facial expressions in
0.1360000000	energy efficiency and
0.1360000000	this generalized
0.1360000000	trained without
0.1360000000	regression in
0.1360000000	as generative
0.1360000000	as multi
0.1360000000	two model
0.1360000000	relaxations of
0.1360000000	mining and
0.1360000000	for mt
0.1360000000	from clinical
0.1360000000	for breast
0.1360000000	for lexical
0.1360000000	each question
0.1360000000	for patients
0.1360000000	validation and
0.1360000000	profile of
0.1360000000	the cover
0.1360000000	map from
0.1360000000	the settings
0.1360000000	the nominal
0.1360000000	gradients and
0.1360000000	the mcmc
0.1360000000	the policies
0.1360000000	the subjects
0.1360000000	small enough
0.1360000000	linear or
0.1360000000	h o
0.1360000000	of end
0.1360000000	of messages
0.1360000000	of handwriting
0.1360000000	of output
0.1360000000	of appearance
0.1360000000	speedup over
0.1360000000	empty set
0.1360000000	issues regarding
0.1360000000	to camera
0.1360000000	to volume
0.1360000000	between color
0.1360000000	o r
0.1360000000	with monotone
0.1360000000	and location
0.1360000000	and horizontal
0.1360000000	materials and
0.1360000000	with data
0.1360000000	and rnn
0.1360000000	networks via
0.1360000000	categorization of
0.1360000000	a modal
0.1360000000	problem from
0.1360000000	a universe
0.1360000000	in storage
0.1360000000	in shape
0.1360000000	a syntax
0.1360000000	founded on
0.1350000000	semi supervised learning for
0.1350000000	evolutionary algorithm based on
0.1350000000	the use of different
0.1350000000	convolutional neural networks to
0.1350000000	spectral clustering with
0.1350000000	proposed method of
0.1350000000	based expert system
0.1350000000	image based on
0.1350000000	a novel hybrid
0.1350000000	character recognition using
0.1350000000	s theory of
0.1350000000	a supervised manner
0.1350000000	diagnosis cad system
0.1350000000	most existing approaches
0.1350000000	and conclude with
0.1350000000	the positive and
0.1350000000	the most salient
0.1350000000	than state of
0.1350000000	sentiment analysis using
0.1350000000	reinforcement learning in
0.1350000000	sparse coding for
0.1350000000	total number of
0.1350000000	network trained for
0.1350000000	software to
0.1350000000	samples on
0.1350000000	descriptors of
0.1350000000	s beliefs
0.1350000000	s interests
0.1350000000	queries or
0.1350000000	entities with
0.1350000000	resolution in
0.1350000000	concerns about
0.1350000000	on gpu
0.1350000000	on query
0.1350000000	satisfiability for
0.1350000000	on event
0.1350000000	for function
0.1350000000	the ancient
0.1350000000	the tsallis
0.1350000000	the weighting
0.1350000000	modules with
0.1350000000	the voice
0.1350000000	hindi to
0.1350000000	the financial
0.1350000000	the academic
0.1350000000	the inconsistency
0.1350000000	the modules
0.1350000000	the omega
0.1350000000	association of
0.1350000000	optimisation of
0.1350000000	such games
0.1350000000	of corpora
0.1350000000	alignment in
0.1350000000	avoidance of
0.1350000000	of metrics
0.1350000000	of offline
0.1350000000	motion to
0.1350000000	of conceptual
0.1350000000	of particles
0.1350000000	of alternative
0.1350000000	search time
0.1350000000	of japanese
0.1350000000	of loss
0.1350000000	of private
0.1350000000	autoencoder with
0.1350000000	kernel of
0.1350000000	put into
0.1350000000	observations to
0.1350000000	these artifacts
0.1350000000	to features
0.1350000000	to sparse
0.1350000000	an unobserved
0.1350000000	to symbolic
0.1350000000	competes with
0.1350000000	lines and
0.1350000000	space or
0.1350000000	non ground
0.1350000000	and technology
0.1350000000	and factors
0.1350000000	assess whether
0.1350000000	and channel
0.1350000000	and simultaneously
0.1350000000	with regression
0.1350000000	and improving
0.1350000000	goals of
0.1350000000	even on
0.1350000000	looks like
0.1350000000	transform and
0.1350000000	duration of
0.1350000000	a physician
0.1350000000	or of
0.1350000000	a uav
0.1350000000	in r
0.1350000000	in gaussian
0.1350000000	loss over
0.1350000000	variables from
0.1350000000	a chaotic
0.1340000000	a neural network based
0.1340000000	the problem of minimizing
0.1340000000	the performance of image
0.1340000000	a number of different
0.1340000000	based approach in
0.1340000000	perceptual quality of
0.1340000000	any given time
0.1340000000	with large state
0.1340000000	hyper parameters and
0.1340000000	a new iterative
0.1340000000	the other methods
0.1340000000	verification based on
0.1340000000	those obtained using
0.1340000000	sentence in
0.1340000000	this claim
0.1340000000	this particular
0.1340000000	entirely on
0.1340000000	domains to
0.1340000000	vector in
0.1340000000	influence in
0.1340000000	much closer
0.1340000000	much wider
0.1340000000	node with
0.1340000000	tagging for
0.1340000000	understanding to
0.1340000000	toolbox for
0.1340000000	on image
0.1340000000	for users
0.1340000000	for design
0.1340000000	for hierarchical
0.1340000000	each subset
0.1340000000	anomalies and
0.1340000000	map using
0.1340000000	the lines
0.1340000000	gradients of
0.1340000000	not easy
0.1340000000	the orthogonal
0.1340000000	the biased
0.1340000000	classes using
0.1340000000	minimization in
0.1340000000	topics as
0.1340000000	thorough empirical
0.1340000000	of programming
0.1340000000	of affective
0.1340000000	of conventional
0.1340000000	of optical
0.1340000000	of typical
0.1340000000	som and
0.1340000000	events to
0.1340000000	attacks against
0.1340000000	to re
0.1340000000	to exhibit
0.1340000000	to exponential
0.1340000000	notes and
0.1340000000	adaptable to
0.1340000000	tensors with
0.1340000000	by layer
0.1340000000	also conduct
0.1340000000	example based
0.1340000000	relations to
0.1340000000	independent given
0.1340000000	intervals for
0.1340000000	pay more
0.1340000000	relation in
0.1340000000	and fully
0.1340000000	and physical
0.1340000000	with partial
0.1340000000	and applies
0.1340000000	and ranking
0.1340000000	networks at
0.1340000000	and combinatorial
0.1340000000	authentication and
0.1340000000	simulator to
0.1340000000	in children
0.1340000000	four popular
0.1340000000	metric in
0.1340000000	or in
0.1340000000	a quantization
0.1340000000	in open
0.1340000000	correspondences and
0.1330000000	a set of points
0.1330000000	in artificial intelligence and
0.1330000000	the number of components
0.1330000000	the number of bits
0.1330000000	the number of layers
0.1330000000	the training data and
0.1330000000	object classification and
0.1330000000	observed data and
0.1330000000	such as graph
0.1330000000	in deep networks
0.1330000000	a given sentence
0.1330000000	the pool of
0.1330000000	the categories of
0.1330000000	the observed image
0.1330000000	the more complex
0.1330000000	each iteration of
0.1330000000	in model based
0.1330000000	this new approach
0.1330000000	the two streams
0.1330000000	predictive models for
0.1330000000	the new technique
0.1330000000	classification task and
0.1330000000	this regularizer
0.1330000000	new skills
0.1330000000	this dynamic
0.1330000000	corroborated by
0.1330000000	s data
0.1330000000	as temporal
0.1330000000	different context
0.1330000000	three components
0.1330000000	3d information
0.1330000000	different classification
0.1330000000	3d scan
0.1330000000	as local
0.1330000000	as prediction
0.1330000000	s 1
0.1330000000	second layer
0.1330000000	on pose
0.1330000000	each subject
0.1330000000	from image
0.1330000000	on open
0.1330000000	succeeded in
0.1330000000	towards addressing
0.1330000000	for synthesizing
0.1330000000	on content
0.1330000000	for encoding
0.1330000000	for multilabel
0.1330000000	for data
0.1330000000	from learning
0.1330000000	from web
0.1330000000	each sequence
0.1330000000	pioneered by
0.1330000000	areas in
0.1330000000	the phrases
0.1330000000	csp and
0.1330000000	the ontological
0.1330000000	the viterbi
0.1330000000	the quantities
0.1330000000	the hard
0.1330000000	the hyperplane
0.1330000000	the translated
0.1330000000	the modulus
0.1330000000	the generators
0.1330000000	the toolkit
0.1330000000	the mars
0.1330000000	not straightforward
0.1330000000	the neuro
0.1330000000	the priors
0.1330000000	the monolingual
0.1330000000	the vanilla
0.1330000000	the rare
0.1330000000	the asynchronous
0.1330000000	over segmentation
0.1330000000	about object
0.1330000000	through rate
0.1330000000	attractive because
0.1330000000	concern about
0.1330000000	of play
0.1330000000	of datasets
0.1330000000	distributions for
0.1330000000	exist between
0.1330000000	of short
0.1330000000	of multiclass
0.1330000000	of nuclei
0.1330000000	of integration
0.1330000000	of interacting
0.1330000000	of resampling
0.1330000000	of shared
0.1330000000	of missing
0.1330000000	of prior
0.1330000000	of russian
0.1330000000	of consensus
0.1330000000	of asymmetric
0.1330000000	of s
0.1330000000	of triplet
0.1330000000	any object
0.1330000000	these languages
0.1330000000	to multiple
0.1330000000	to point
0.1330000000	to state
0.1330000000	to join
0.1330000000	words with
0.1330000000	inherited from
0.1330000000	by users
0.1330000000	fooled by
0.1330000000	those from
0.1330000000	batches of
0.1330000000	and mutation
0.1330000000	and distance
0.1330000000	and plans
0.1330000000	and scale
0.1330000000	and multimodal
0.1330000000	translates into
0.1330000000	bodies of
0.1330000000	10 6
0.1330000000	0 norm
0.1330000000	in emph
0.1330000000	in extreme
0.1330000000	whole body
0.1330000000	a layered
0.1330000000	a resnet
0.1330000000	a geodesic
0.1330000000	in starcraft
0.1330000000	in conversational
0.1330000000	a spoken
0.1330000000	a response
0.1330000000	works for
0.1330000000	in breast
0.1330000000	in hand
0.1330000000	in function
0.1330000000	a claim
0.1330000000	1 4
0.1320000000	amount of data and
0.1320000000	the problem of 3d
0.1320000000	the problem of optimal
0.1320000000	the problem of non
0.1320000000	the experimental results on
0.1320000000	a class of problems
0.1320000000	to mathcal o
0.1320000000	per second fps
0.1320000000	the latter case
0.1320000000	used for unsupervised
0.1320000000	belief propagation in
0.1320000000	a problem in
0.1320000000	in one language
0.1320000000	the solutions to
0.1320000000	the next word
0.1320000000	the part of
0.1320000000	a model with
0.1320000000	a scene and
0.1320000000	test set and
0.1320000000	using machine learning
0.1320000000	inference problems in
0.1320000000	other model
0.1320000000	other kernel
0.1320000000	goal and
0.1320000000	then combined
0.1320000000	novel scheme
0.1320000000	novel kernel
0.1320000000	as camera
0.1320000000	as news
0.1320000000	novel visual
0.1320000000	for search
0.1320000000	sharing and
0.1320000000	from shading
0.1320000000	the evaluations
0.1320000000	the metrics
0.1320000000	the sharpness
0.1320000000	the pronunciation
0.1320000000	the angular
0.1320000000	the communities
0.1320000000	the decentralized
0.1320000000	region from
0.1320000000	all categories
0.1320000000	using text
0.1320000000	using sentence
0.1320000000	such patterns
0.1320000000	of variation
0.1320000000	of adaptation
0.1320000000	of salient
0.1320000000	of wordnet
0.1320000000	of symmetries
0.1320000000	of collective
0.1320000000	of edges
0.1320000000	of primal
0.1320000000	of product
0.1320000000	of literary
0.1320000000	of acquisition
0.1320000000	of photo
0.1320000000	indices and
0.1320000000	to causal
0.1320000000	to textual
0.1320000000	truth and
0.1320000000	time distribution
0.1320000000	also developed
0.1320000000	and corresponding
0.1320000000	with network
0.1320000000	and outliers
0.1320000000	with conditional
0.1320000000	and sensors
0.1320000000	and variables
0.1320000000	and detection
0.1320000000	or object
0.1320000000	a factorization
0.1320000000	a poisson
0.1320000000	in texts
0.1320000000	reasonably good
0.1320000000	a rotation
0.1320000000	1 for
0.1320000000	monitoring using
0.1310000000	the proposed method with
0.1310000000	convergence guarantees for
0.1310000000	genetic algorithms for
0.1310000000	3d shape and
0.1310000000	well as in
0.1310000000	genetic algorithm for
0.1310000000	the training procedure
0.1310000000	two and three
0.1310000000	model fitting and
0.1310000000	the first case
0.1310000000	to one of
0.1310000000	and also for
0.1310000000	and detection of
0.1310000000	the user with
0.1310000000	machine translation with
0.1310000000	detection problem in
0.1310000000	the source side
0.1310000000	evolutionary algorithms and
0.1310000000	the constraint of
0.1310000000	the actions and
0.1310000000	the posterior of
0.1310000000	the scale and
0.1310000000	the levels of
0.1310000000	the proposed architectures
0.1310000000	the network learns
0.1310000000	non smooth optimization
0.1310000000	human actions in
0.1310000000	not included in
0.1310000000	on images of
0.1310000000	linear regression with
0.1310000000	the efficacy and
0.1310000000	computational framework for
0.1310000000	new algorithms and
0.1310000000	model so
0.1310000000	as 2
0.1310000000	operator in
0.1310000000	roles in
0.1310000000	image or
0.1310000000	change and
0.1310000000	product in
0.1310000000	from videos
0.1310000000	gradients to
0.1310000000	the offline
0.1310000000	capabilities and
0.1310000000	optimization over
0.1310000000	extreme value
0.1310000000	subspace of
0.1310000000	privacy and
0.1310000000	diffusion and
0.1310000000	distance on
0.1310000000	dependencies for
0.1310000000	distinct from
0.1310000000	children and
0.1310000000	derived using
0.1310000000	various contexts
0.1310000000	causes of
0.1310000000	programs under
0.1310000000	a ride
0.1310000000	a smoothed
0.1310000000	1 by
0.1310000000	without imposing
0.1310000000	transformed to
0.1310000000	a neuromorphic
0.1300000000	a machine learning problem
0.1300000000	the problem of data
0.1300000000	the use of local
0.1300000000	the existing methods in
0.1300000000	the same image
0.1300000000	the same region
0.1300000000	the same domain
0.1300000000	the same group
0.1300000000	the first dataset
0.1300000000	in many vision
0.1300000000	a system for
0.1300000000	a new learning
0.1300000000	sequential monte carlo
0.1300000000	least squares estimator
0.1300000000	in continuous time
0.1300000000	of such images
0.1300000000	the dimensionality reduction
0.1300000000	this new method
0.1300000000	random fields with
0.1300000000	and integration of
0.1300000000	policy gradient and
0.1300000000	this step
0.1300000000	testing and
0.1300000000	gained from
0.1300000000	as knowledge
0.1300000000	novel attention
0.1300000000	much stronger
0.1300000000	regret for
0.1300000000	as neural
0.1300000000	different genres
0.1300000000	language for
0.1300000000	as words
0.1300000000	extended by
0.1300000000	basis of
0.1300000000	for cancer
0.1300000000	technology and
0.1300000000	for implicit
0.1300000000	on sequence
0.1300000000	on sets
0.1300000000	for features
0.1300000000	from normal
0.1300000000	each character
0.1300000000	unaware of
0.1300000000	participate in
0.1300000000	the book
0.1300000000	the tradeoffs
0.1300000000	the constrained
0.1300000000	confidence in
0.1300000000	the learners
0.1300000000	the displacement
0.1300000000	the leaves
0.1300000000	the divergence
0.1300000000	the engineering
0.1300000000	the street
0.1300000000	the gps
0.1300000000	the nested
0.1300000000	the sea
0.1300000000	the constituent
0.1300000000	over data
0.1300000000	such questions
0.1300000000	path of
0.1300000000	all metrics
0.1300000000	of gradient
0.1300000000	of cumulative
0.1300000000	of environmental
0.1300000000	of strategies
0.1300000000	of transformations
0.1300000000	of meta
0.1300000000	of component
0.1300000000	of anatomical
0.1300000000	more faithful
0.1300000000	transformations and
0.1300000000	to multiclass
0.1300000000	an identity
0.1300000000	to sequence
0.1300000000	words into
0.1300000000	runs on
0.1300000000	and input
0.1300000000	and during
0.1300000000	progress towards
0.1300000000	in crowdsourcing
0.1300000000	in software
0.1300000000	under roc
0.1300000000	in new
0.1300000000	a parsing
0.1300000000	a contextual
0.1300000000	a forest
0.1300000000	in tweets
0.1300000000	in tissue
0.1300000000	per task
0.1300000000	in runtime
0.1300000000	a sketch
0.1300000000	in tensorflow
0.1300000000	without modifying
0.1300000000	1 t
0.1300000000	filters for
0.1300000000	simplicity of
0.1290000000	alternating direction method of
0.1290000000	of machine learning algorithms
0.1290000000	in multi armed bandits
0.1290000000	a multi task learning
0.1290000000	in convolutional neural networks
0.1290000000	a set of n
0.1290000000	a neural network for
0.1290000000	and data mining
0.1290000000	natural languages and
0.1290000000	the true labels
0.1290000000	visual features and
0.1290000000	knowledge base in
0.1290000000	data points with
0.1290000000	for missing data
0.1290000000	to large data
0.1290000000	open problem of
0.1290000000	the task and
0.1290000000	from satellite images
0.1290000000	inverse problem of
0.1290000000	convergence rate in
0.1290000000	data set and
0.1290000000	metric based on
0.1290000000	the knowledge gradient
0.1290000000	for learning algorithms
0.1290000000	k nn graph
0.1290000000	and semantic segmentation
0.1290000000	feature vector for
0.1290000000	image segmentation using
0.1290000000	of short term
0.1290000000	variational autoencoders for
0.1290000000	a model free
0.1290000000	a classification model
0.1290000000	logistic regression with
0.1290000000	sentiment classification and
0.1290000000	feature representation and
0.1290000000	the deep network
0.1290000000	categories with
0.1290000000	still remain
0.1290000000	cases in
0.1290000000	contributed to
0.1290000000	matched to
0.1290000000	two folds
0.1290000000	3d and
0.1290000000	3d scans
0.1290000000	lying on
0.1290000000	each edge
0.1290000000	assembly of
0.1290000000	for noisy
0.1290000000	test for
0.1290000000	the massive
0.1290000000	violation of
0.1290000000	cost in
0.1290000000	over standard
0.1290000000	specificity of
0.1290000000	learning through
0.1290000000	using three
0.1290000000	architecture to
0.1290000000	of quantitative
0.1290000000	generators and
0.1290000000	of organic
0.1290000000	more traditional
0.1290000000	distinguishes between
0.1290000000	graphs in
0.1290000000	messages in
0.1290000000	self learning
0.1290000000	regularization of
0.1290000000	observations from
0.1290000000	objects using
0.1290000000	to project
0.1290000000	indexed by
0.1290000000	uncertain and
0.1290000000	poses and
0.1290000000	becoming more
0.1290000000	demonstrated with
0.1290000000	initialization of
0.1290000000	formed from
0.1290000000	and importance
0.1290000000	and detect
0.1290000000	and answer
0.1290000000	and three
0.1290000000	and compact
0.1290000000	part and
0.1290000000	a distributional
0.1290000000	sentences containing
0.1290000000	detection from
0.1290000000	elaborate on
0.1280000000	in deep neural networks
0.1280000000	the problem of online
0.1280000000	the number of arms
0.1280000000	the feature vectors
0.1280000000	the second issue
0.1280000000	the second algorithm
0.1280000000	able to infer
0.1280000000	and test data
0.1280000000	region of interest
0.1280000000	the existing results
0.1280000000	an approximate inference
0.1280000000	the top down
0.1280000000	co occurrence patterns
0.1280000000	a cross domain
0.1280000000	the classification process
0.1280000000	the minimum cost
0.1280000000	case of two
0.1280000000	the final segmentation
0.1280000000	the model performance
0.1280000000	changes and
0.1280000000	this environment
0.1280000000	contrarily to
0.1280000000	this search
0.1280000000	convexity of
0.1280000000	use for
0.1280000000	novel view
0.1280000000	several novel
0.1280000000	negative and
0.1280000000	for three
0.1280000000	from biomedical
0.1280000000	for 10
0.1280000000	for word
0.1280000000	from general
0.1280000000	evidenced by
0.1280000000	consumption of
0.1280000000	superset of
0.1280000000	the iot
0.1280000000	choices made
0.1280000000	penalty for
0.1280000000	the nlp
0.1280000000	the smart
0.1280000000	the trivial
0.1280000000	the clear
0.1280000000	the pan
0.1280000000	the consistent
0.1280000000	the thresholding
0.1280000000	the directions
0.1280000000	the auditory
0.1280000000	the integral
0.1280000000	over different
0.1280000000	about 10
0.1280000000	all views
0.1280000000	form and
0.1280000000	of evolution
0.1280000000	of design
0.1280000000	of poses
0.1280000000	documents containing
0.1280000000	vary across
0.1280000000	distortion in
0.1280000000	an appearance
0.1280000000	an agreement
0.1280000000	to brain
0.1280000000	an imaging
0.1280000000	to structured
0.1280000000	value prediction
0.1280000000	these vectors
0.1280000000	also demonstrates
0.1280000000	non binary
0.1280000000	non bayesian
0.1280000000	and transitive
0.1280000000	and representation
0.1280000000	and there
0.1280000000	with control
0.1280000000	with pairwise
0.1280000000	with interactive
0.1280000000	customer s
0.1280000000	in games
0.1280000000	in field
0.1280000000	flickr30k and
0.1280000000	deduced from
0.1270000000	the effect of noise
0.1270000000	by end to end
0.1270000000	of person re identification
0.1270000000	use of neural networks
0.1270000000	and data from
0.1270000000	the feature extraction
0.1270000000	an image of
0.1270000000	an optimal algorithm
0.1270000000	a new distance
0.1270000000	for learning with
0.1270000000	1 and 2
0.1270000000	for multi modal
0.1270000000	for multi dimensional
0.1270000000	in hyperspectral images
0.1270000000	for incremental learning
0.1270000000	the semi supervised
0.1270000000	the system dynamics
0.1270000000	and types of
0.1270000000	this problem in
0.1270000000	tested at
0.1270000000	normalization to
0.1270000000	models or
0.1270000000	then consider
0.1270000000	2 to
0.1270000000	evidence in
0.1270000000	environment of
0.1270000000	best answer
0.1270000000	two distributions
0.1270000000	as sample
0.1270000000	adding new
0.1270000000	for localization
0.1270000000	on scene
0.1270000000	on knowledge
0.1270000000	for drug
0.1270000000	name recognition
0.1270000000	for objects
0.1270000000	the wider
0.1270000000	annotation with
0.1270000000	already known
0.1270000000	the offset
0.1270000000	the textures
0.1270000000	the updated
0.1270000000	the aspect
0.1270000000	the 1d
0.1270000000	the inferences
0.1270000000	the observable
0.1270000000	the enormous
0.1270000000	the examined
0.1270000000	languages to
0.1270000000	rule of
0.1270000000	humans in
0.1270000000	structure to
0.1270000000	such learning
0.1270000000	minimization with
0.1270000000	such objects
0.1270000000	speech from
0.1270000000	of variations
0.1270000000	of candidates
0.1270000000	of types
0.1270000000	against overfitting
0.1270000000	lstm in
0.1270000000	of curve
0.1270000000	of quantization
0.1270000000	of pixel
0.1270000000	of inverse
0.1270000000	representation by
0.1270000000	of entity
0.1270000000	top to
0.1270000000	of synapses
0.1270000000	of creative
0.1270000000	of neuron
0.1270000000	of l
0.1270000000	of frequent
0.1270000000	of names
0.1270000000	of species
0.1270000000	of gas
0.1270000000	philosophy of
0.1270000000	rounds of
0.1270000000	events from
0.1270000000	lexicon of
0.1270000000	to robust
0.1270000000	to face
0.1270000000	to argue
0.1270000000	to suit
0.1270000000	to programs
0.1270000000	time t
0.1270000000	by model
0.1270000000	t know
0.1270000000	science in
0.1270000000	mechanisms and
0.1270000000	de algorithm
0.1270000000	patches and
0.1270000000	hypotheses to
0.1270000000	causes and
0.1270000000	and style
0.1270000000	and methods
0.1270000000	with observations
0.1270000000	and part
0.1270000000	and phoneme
0.1270000000	and end
0.1270000000	scene to
0.1270000000	document as
0.1270000000	videos by
0.1270000000	10 million
0.1270000000	a sensory
0.1270000000	in task
0.1270000000	maps as
0.1270000000	a fresh
0.1270000000	in 2
0.1270000000	without forgetting
0.1260000000	classification as well as
0.1260000000	the hidden state
0.1260000000	coordinate descent for
0.1260000000	the potential for
0.1260000000	the same for
0.1260000000	the information from
0.1260000000	synthetic data for
0.1260000000	function based on
0.1260000000	in contrast with
0.1260000000	existing methods for
0.1260000000	from data and
0.1260000000	and to use
0.1260000000	the expected error
0.1260000000	the code and
0.1260000000	explosive growth of
0.1260000000	the algorithm uses
0.1260000000	feature selection and
0.1260000000	the proposed procedure
0.1260000000	first order and
0.1260000000	and propose to
0.1260000000	the representations of
0.1260000000	the art unsupervised
0.1260000000	algorithm s
0.1260000000	categories in
0.1260000000	sparse non
0.1260000000	frames to
0.1260000000	both high
0.1260000000	exploration with
0.1260000000	few lines
0.1260000000	sensors for
0.1260000000	boundary in
0.1260000000	competitive against
0.1260000000	degradation of
0.1260000000	facts about
0.1260000000	each token
0.1260000000	suffered from
0.1260000000	for t
0.1260000000	third person
0.1260000000	until recently
0.1260000000	the concatenated
0.1260000000	expert and
0.1260000000	the drive
0.1260000000	the tools
0.1260000000	the weather
0.1260000000	statements about
0.1260000000	association for
0.1260000000	semantics in
0.1260000000	known for
0.1260000000	played by
0.1260000000	over graphs
0.1260000000	units on
0.1260000000	contexts of
0.1260000000	learning work
0.1260000000	documents to
0.1260000000	built around
0.1260000000	no other
0.1260000000	augmentation and
0.1260000000	of authors
0.1260000000	estimate to
0.1260000000	to restrict
0.1260000000	an industrial
0.1260000000	functions as
0.1260000000	an atom
0.1260000000	topology and
0.1260000000	intervals of
0.1260000000	vectors from
0.1260000000	features by
0.1260000000	groups for
0.1260000000	across many
0.1260000000	99 accuracy
0.1260000000	programs for
0.1260000000	per day
0.1260000000	contained within
0.1260000000	thereby providing
0.1260000000	in multiple
0.1260000000	a possibility
0.1260000000	in output
0.1260000000	videos to
0.1260000000	kernels of
0.1250000000	the proposed method for
0.1250000000	the proposed approach for
0.1250000000	the classification accuracy and
0.1250000000	and automatic speech
0.1250000000	the maximum of
0.1250000000	the cnn and
0.1250000000	labeled data from
0.1250000000	social networks and
0.1250000000	variable models for
0.1250000000	attention mechanism over
0.1250000000	attention model for
0.1250000000	of images from
0.1250000000	and then to
0.1250000000	well as new
0.1250000000	learning algorithm to
0.1250000000	learning method for
0.1250000000	the existing approach
0.1250000000	a system and
0.1250000000	space models of
0.1250000000	the patterns of
0.1250000000	direct estimation of
0.1250000000	this model and
0.1250000000	and properties of
0.1250000000	and information extraction
0.1250000000	time series and
0.1250000000	the cost and
0.1250000000	text classification with
0.1250000000	the optimal set
0.1250000000	the results as
0.1250000000	word embeddings from
0.1250000000	different number of
0.1250000000	and one for
0.1250000000	learning algorithms for
0.1250000000	the variables of
0.1250000000	the computation and
0.1250000000	estimation based on
0.1250000000	of data samples
0.1250000000	to deep learning
0.1250000000	in recommendation systems
0.1250000000	dataset compared to
0.1250000000	evolutionary algorithm with
0.1250000000	space complexity of
0.1250000000	image processing in
0.1250000000	feature maps for
0.1250000000	the context in
0.1250000000	machine learning of
0.1250000000	the clustering and
0.1250000000	a framework of
0.1250000000	of learning from
0.1250000000	the prior over
0.1250000000	for up to
0.1250000000	and analysis of
0.1250000000	and tracking of
0.1250000000	the sequence length
0.1250000000	the segmentation process
0.1250000000	the decision of
0.1250000000	the paper then
0.1250000000	training samples for
0.1250000000	approach results in
0.1250000000	training set with
0.1250000000	an object in
0.1250000000	the art and
0.1250000000	the one with
0.1250000000	image analysis and
0.1250000000	recognition at
0.1250000000	dnns using
0.1250000000	sensors of
0.1250000000	as cnn
0.1250000000	as by
0.1250000000	modeling for
0.1250000000	on k
0.1250000000	for or
0.1250000000	for by
0.1250000000	on at
0.1250000000	on to
0.1250000000	for de
0.1250000000	on mean
0.1250000000	expectations of
0.1250000000	the spoken
0.1250000000	the detail
0.1250000000	m of
0.1250000000	descent in
0.1250000000	laplacian of
0.1250000000	all nodes
0.1250000000	i s
0.1250000000	of robots
0.1250000000	of area
0.1250000000	of crossover
0.1250000000	to frame
0.1250000000	100 times
0.1250000000	by co
0.1250000000	selection using
0.1250000000	o s
0.1250000000	with as
0.1250000000	and display
0.1250000000	convolution of
0.1250000000	definitions in
0.1250000000	0 with
0.1250000000	a most
0.1240000000	a set of variables
0.1240000000	the standard model
0.1240000000	the subset of
0.1240000000	based approach for
0.1240000000	kalman filter and
0.1240000000	optimal algorithm for
0.1240000000	the training error
0.1240000000	the training time
0.1240000000	subspace spanned by
0.1240000000	to learn features
0.1240000000	to higher level
0.1240000000	and classification of
0.1240000000	network architecture for
0.1240000000	input space to
0.1240000000	the noise level
0.1240000000	classification problem and
0.1240000000	network structure with
0.1240000000	a new theory
0.1240000000	for diagnosis of
0.1240000000	gaussian noise and
0.1240000000	deep learning and
0.1240000000	these two algorithms
0.1240000000	and algorithms for
0.1240000000	data mining for
0.1240000000	classification accuracy of
0.1240000000	the visual information
0.1240000000	3d scene understanding
0.1240000000	a decision problem
0.1240000000	modeling framework for
0.1240000000	physical properties of
0.1240000000	for linear regression
0.1240000000	the system at
0.1240000000	the bayesian posterior
0.1240000000	this new dataset
0.1240000000	and texture features
0.1240000000	a simple efficient
0.1240000000	segmentation algorithm for
0.1240000000	a rate of
0.1240000000	detection method using
0.1240000000	sentiment analysis in
0.1240000000	predictive model for
0.1240000000	a feature set
0.1240000000	learning problem in
0.1240000000	functions based on
0.1240000000	training images with
0.1240000000	automatic segmentation and
0.1240000000	the model architecture
0.1240000000	and deep belief
0.1240000000	knowledge transfer from
0.1240000000	this mapping
0.1240000000	powerful enough
0.1240000000	compositionality in
0.1240000000	software for
0.1240000000	transfer in
0.1240000000	other tasks
0.1240000000	this manner
0.1240000000	layer with
0.1240000000	validated against
0.1240000000	as total
0.1240000000	prior in
0.1240000000	as dimensionality
0.1240000000	different facial
0.1240000000	ratings of
0.1240000000	for ordinal
0.1240000000	examine whether
0.1240000000	for security
0.1240000000	from speech
0.1240000000	on sentence
0.1240000000	on n
0.1240000000	for propositional
0.1240000000	for asp
0.1240000000	on coco
0.1240000000	from 3d
0.1240000000	on multimodal
0.1240000000	from street
0.1240000000	for hmms
0.1240000000	for gp
0.1240000000	brings about
0.1240000000	mitigated by
0.1240000000	the distorted
0.1240000000	the robotic
0.1240000000	not easily
0.1240000000	the extrinsic
0.1240000000	the rigid
0.1240000000	the abnormality
0.1240000000	the photo
0.1240000000	the extra
0.1240000000	twofold first
0.1240000000	strives to
0.1240000000	adherence to
0.1240000000	tasked with
0.1240000000	only in
0.1240000000	of contexts
0.1240000000	of trees
0.1240000000	preserved under
0.1240000000	of sample
0.1240000000	estimation to
0.1240000000	an analog
0.1240000000	to group
0.1240000000	relies upon
0.1240000000	further performance
0.1240000000	considerable amount
0.1240000000	optimal front
0.1240000000	absolute value
0.1240000000	strive to
0.1240000000	and reconstruction
0.1240000000	and role
0.1240000000	with larger
0.1240000000	microsoft s
0.1240000000	services to
0.1240000000	a 100
0.1240000000	crf and
0.1230000000	the problem of classifying
0.1230000000	an online algorithm
0.1230000000	such as twitter
0.1230000000	results in many
0.1230000000	of random forest
0.1230000000	two stage approach
0.1230000000	of data points
0.1230000000	the binary codes
0.1230000000	to detect objects
0.1230000000	the k th
0.1230000000	the global minimum
0.1230000000	using neural networks
0.1230000000	a data mining
0.1230000000	tested and
0.1230000000	codes for
0.1230000000	other baselines
0.1230000000	category of
0.1230000000	work shows
0.1230000000	sub spaces
0.1230000000	performed for
0.1230000000	refinement of
0.1230000000	verification system
0.1230000000	gans and
0.1230000000	s t
0.1230000000	compensates for
0.1230000000	frequencies of
0.1230000000	as with
0.1230000000	amazon s
0.1230000000	three important
0.1230000000	much progress
0.1230000000	two player
0.1230000000	language as
0.1230000000	2 l
0.1230000000	s or
0.1230000000	span of
0.1230000000	operator and
0.1230000000	differentiate between
0.1230000000	for exploiting
0.1230000000	encourage further
0.1230000000	savings in
0.1230000000	the voters
0.1230000000	the steepest
0.1230000000	rotations in
0.1230000000	sets with
0.1230000000	all pairs
0.1230000000	exposure to
0.1230000000	of minimal
0.1230000000	very easy
0.1230000000	equivalence between
0.1230000000	encodings of
0.1230000000	scores from
0.1230000000	methodologies for
0.1230000000	and recall
0.1230000000	and at
0.1230000000	and achieved
0.1230000000	suitable to
0.1230000000	a future
0.1230000000	a testbed
0.1230000000	in capturing
0.1220000000	classification method based on
0.1220000000	sparse linear combination of
0.1220000000	fully convolutional network to
0.1220000000	support vector machine and
0.1220000000	deep learning approaches to
0.1220000000	deep learning techniques for
0.1220000000	long term dependencies in
0.1220000000	deep learning approaches for
0.1220000000	support vector machine for
0.1220000000	fully convolutional network for
0.1220000000	neural network models for
0.1220000000	inference algorithms based on
0.1220000000	principal component analysis with
0.1220000000	natural language processing to
0.1220000000	high dimensional data and
0.1220000000	high dimensional data in
0.1220000000	feedforward neural networks with
0.1220000000	statistics machine learning and
0.1220000000	consistently outperforms state of
0.1220000000	stochastic gradient descent with
0.1220000000	stochastic gradient descent for
0.1220000000	stochastic gradient descent on
0.1220000000	present experimental results on
0.1220000000	stochastic gradient descent and
0.1220000000	semi supervised learning on
0.1220000000	neural network based on
0.1220000000	proposed approach compared to
0.1220000000	semi supervised learning and
0.1220000000	the art on two
0.1220000000	multi task learning for
0.1220000000	neural network architectures and
0.1220000000	multi task learning of
0.1220000000	real world data show
0.1220000000	real world datasets and
0.1220000000	neural networks cnn and
0.1220000000	learning based approach for
0.1220000000	algorithm outperforms state of
0.1220000000	deep learning methods in
0.1220000000	deep learning methods for
0.1220000000	deep learning methods to
0.1220000000	deep convolutional networks for
0.1220000000	conditional random fields for
0.1220000000	machine learning approaches to
0.1220000000	machine learning approaches for
0.1220000000	outperforms current state of
0.1220000000	empirical risk minimization with
0.1220000000	the proposed method as
0.1220000000	convolutional neural network with
0.1220000000	extensive experimental results show
0.1220000000	machine learning algorithms to
0.1220000000	deep neural networks to
0.1220000000	deep neural networks and
0.1220000000	deep neural networks with
0.1220000000	deep neural networks as
0.1220000000	machine learning algorithms and
0.1220000000	generative adversarial networks for
0.1220000000	recurrent neural network for
0.1220000000	generative adversarial networks and
0.1220000000	recurrent neural network to
0.1220000000	large scale dataset of
0.1220000000	machine learning algorithms for
0.1220000000	perform extensive experiments on
0.1220000000	using fully convolutional networks
0.1220000000	high dimensional space and
0.1220000000	multi label classification and
0.1220000000	machine learning methods in
0.1220000000	machine learning methods to
0.1220000000	deep reinforcement learning to
0.1220000000	generative adversarial network for
0.1220000000	conducted extensive experiments on
0.1220000000	neural networks rnns with
0.1220000000	neural networks cnns in
0.1220000000	artificial neural networks for
0.1220000000	optimization algorithm based on
0.1220000000	deep learning method for
0.1220000000	real world applications such
0.1220000000	deep neural network and
0.1220000000	deep neural network with
0.1220000000	neural networks cnns and
0.1220000000	deep neural network for
0.1220000000	artificial neural networks to
0.1220000000	artificial neural networks and
0.1220000000	learning based method for
0.1220000000	neural networks cnns with
0.1220000000	neural networks cnns for
0.1220000000	real world applications of
0.1220000000	a bayesian network with
0.1220000000	machine learning models for
0.1220000000	machine learning techniques and
0.1220000000	convolutional neural networks in
0.1220000000	machine learning techniques in
0.1220000000	machine learning techniques to
0.1220000000	support vector machines for
0.1220000000	convolutional neural networks with
0.1220000000	efficient algorithm based on
0.1220000000	convolutional neural networks on
0.1220000000	convolutional neural networks using
0.1220000000	latent variable models for
0.1220000000	convolutional neural networks and
0.1220000000	on real data sets
0.1220000000	convolutional neural networks as
0.1220000000	and synthetic data sets
0.1220000000	linear discriminant analysis and
0.1220000000	recurrent neural networks for
0.1220000000	recurrent neural networks and
0.1220000000	recurrent neural networks with
0.1220000000	restricted boltzmann machines for
0.1220000000	learning algorithm based on
0.1220000000	recurrent neural networks in
0.1220000000	network achieves state of
0.1220000000	learning approach based on
0.1220000000	recurrent neural networks to
0.1220000000	the true data
0.1220000000	available for training
0.1220000000	and unseen classes
0.1220000000	the student s
0.1220000000	used to quantify
0.1220000000	and conditional independence
0.1220000000	the stability and
0.1220000000	3d shape reconstruction
0.1220000000	the first place
0.1220000000	of image processing
0.1220000000	a system with
0.1220000000	and verification of
0.1220000000	and segmentation of
0.1220000000	study of different
0.1220000000	the images with
0.1220000000	in training of
0.1220000000	in training data
0.1220000000	the results on
0.1220000000	of optimization algorithms
0.1220000000	of three different
0.1220000000	and language modeling
0.1220000000	the design matrix
0.1220000000	inference in such
0.1220000000	the background knowledge
0.1220000000	the temporal and
0.1220000000	of data using
0.1220000000	new algorithm to
0.1220000000	of feature extraction
0.1220000000	largest publicly available
0.1220000000	the algorithm runs
0.1220000000	the work in
0.1220000000	the learning phase
0.1220000000	the algorithm consists
0.1220000000	new insights into
0.1220000000	different aspects of
0.1220000000	the method using
0.1220000000	in evolutionary algorithms
0.1220000000	and semantics of
0.1220000000	the original method
0.1220000000	performance of such
0.1220000000	a local search
0.1220000000	many areas of
0.1220000000	use machine learning
0.1220000000	to traditional approaches
0.1220000000	the way of
0.1220000000	second order methods
0.1220000000	day and
0.1220000000	user and
0.1220000000	this gives
0.1220000000	this point
0.1220000000	grained and
0.1220000000	new ones
0.1220000000	then describe
0.1220000000	device in
0.1220000000	different agents
0.1220000000	best lists
0.1220000000	different depths
0.1220000000	conversations in
0.1220000000	building of
0.1220000000	for efficiently
0.1220000000	many image
0.1220000000	for storing
0.1220000000	polynomial of
0.1220000000	driver s
0.1220000000	map in
0.1220000000	clusters for
0.1220000000	the h
0.1220000000	the competitive
0.1220000000	toolkit for
0.1220000000	twice as
0.1220000000	completion of
0.1220000000	scans and
0.1220000000	classes by
0.1220000000	computer conversation
0.1220000000	documents into
0.1220000000	of vertices
0.1220000000	patterns for
0.1220000000	but often
0.1220000000	side effect
0.1220000000	more resilient
0.1220000000	q and
0.1220000000	an evolving
0.1220000000	these characteristics
0.1220000000	to m
0.1220000000	interfere with
0.1220000000	dialogues and
0.1220000000	done manually
0.1220000000	agents as
0.1220000000	sites and
0.1220000000	50 years
0.1220000000	implemented for
0.1220000000	and integrate
0.1220000000	factorization in
0.1220000000	interest to
0.1220000000	drawing on
0.1220000000	in on
0.1220000000	10 20
0.1220000000	or simply
0.1220000000	20 times
0.1220000000	a factorized
0.1220000000	1 to
0.1210000000	an end to end model
0.1210000000	objects of interest
0.1210000000	do not use
0.1210000000	an evaluation of
0.1210000000	the previous best
0.1210000000	this article provides
0.1210000000	automatic generation of
0.1210000000	the literature on
0.1210000000	used in many
0.1210000000	few decades
0.1210000000	bases in
0.1210000000	domains in
0.1210000000	work of
0.1210000000	models but
0.1210000000	network s
0.1210000000	s intention
0.1210000000	as word
0.1210000000	solution and
0.1210000000	on positive
0.1210000000	dependency between
0.1210000000	for updating
0.1210000000	comprising of
0.1210000000	from eeg
0.1210000000	mining in
0.1210000000	test of
0.1210000000	finance and
0.1210000000	the multiplicative
0.1210000000	the photographer
0.1210000000	the ambiguity
0.1210000000	embeddings as
0.1210000000	presence and
0.1210000000	recall of
0.1210000000	accompanied with
0.1210000000	fill in
0.1210000000	very complex
0.1210000000	of discernment
0.1210000000	of tests
0.1210000000	of diffeomorphisms
0.1210000000	of highly
0.1210000000	but in
0.1210000000	particularly effective
0.1210000000	contaminated with
0.1210000000	percent of
0.1210000000	often contain
0.1210000000	while performing
0.1210000000	an interface
0.1210000000	an ellipse
0.1210000000	data at
0.1210000000	functions over
0.1210000000	formalisms and
0.1210000000	facilitated by
0.1210000000	assessed by
0.1210000000	interpretability and
0.1210000000	range and
0.1210000000	position in
0.1210000000	surveillance and
0.1210000000	look for
0.1210000000	and assess
0.1210000000	with one
0.1210000000	alignments between
0.1210000000	a condition
0.1210000000	convolution in
0.1210000000	a decentralized
0.1210000000	1 billion
0.1210000000	controller for
0.1210000000	videos using
0.1200000000	for action recognition in
0.1200000000	the number of objects
0.1200000000	information as well as
0.1200000000	the same label
0.1200000000	able to reduce
0.1200000000	do not consider
0.1200000000	the given data
0.1200000000	the users to
0.1200000000	data for example
0.1200000000	a high accuracy
0.1200000000	theory and in
0.1200000000	an ability to
0.1200000000	the problem s
0.1200000000	the two domains
0.1200000000	individual and
0.1200000000	architectures with
0.1200000000	this neural
0.1200000000	signals of
0.1200000000	new proof
0.1200000000	vector to
0.1200000000	robot and
0.1200000000	verification using
0.1200000000	convex in
0.1200000000	adversary s
0.1200000000	rid of
0.1200000000	use two
0.1200000000	operator for
0.1200000000	layers or
0.1200000000	image through
0.1200000000	as content
0.1200000000	two simple
0.1200000000	two other
0.1200000000	comparisons against
0.1200000000	robots to
0.1200000000	properties by
0.1200000000	for fusion
0.1200000000	product to
0.1200000000	hallmark of
0.1200000000	fcn and
0.1200000000	frontal and
0.1200000000	stream in
0.1200000000	instances by
0.1200000000	the off
0.1200000000	the bilingual
0.1200000000	the interpretable
0.1200000000	the programs
0.1200000000	the authorship
0.1200000000	the conditioning
0.1200000000	the regime
0.1200000000	process as
0.1200000000	programming to
0.1200000000	another one
0.1200000000	context as
0.1200000000	states to
0.1200000000	attributes into
0.1200000000	embedding into
0.1200000000	all objects
0.1200000000	quantification in
0.1200000000	of groups
0.1200000000	against outliers
0.1200000000	more useful
0.1200000000	of filter
0.1200000000	cnn by
0.1200000000	of subsets
0.1200000000	of blood
0.1200000000	of difference
0.1200000000	of variance
0.1200000000	of statistics
0.1200000000	4 5
0.1200000000	incompleteness of
0.1200000000	lasso for
0.1200000000	based in
0.1200000000	instance and
0.1200000000	measure to
0.1200000000	step to
0.1200000000	to sentence
0.1200000000	any particular
0.1200000000	to accuracy
0.1200000000	parsing as
0.1200000000	pose as
0.1200000000	self expressive
0.1200000000	to layer
0.1200000000	dnn in
0.1200000000	safety in
0.1200000000	meanings and
0.1200000000	camera as
0.1200000000	meaning in
0.1200000000	values by
0.1200000000	classify and
0.1200000000	guarantees to
0.1200000000	n p
0.1200000000	and less
0.1200000000	with knowledge
0.1200000000	even worse
0.1200000000	neuroscience and
0.1200000000	programs from
0.1200000000	mri of
0.1200000000	decomposition to
0.1200000000	describe two
0.1200000000	crowdsourcing and
0.1200000000	a head
0.1200000000	forecasting in
0.1200000000	in distributed
0.1200000000	or sparse
0.1200000000	lda and
0.1200000000	detection by
0.1190000000	the proposed method on
0.1190000000	the second problem
0.1190000000	and data driven
0.1190000000	a given model
0.1190000000	and to perform
0.1190000000	the results provide
0.1190000000	this work investigates
0.1190000000	issues such as
0.1190000000	a single agent
0.1190000000	neural network for
0.1190000000	and on line
0.1190000000	sub quadratic
0.1190000000	new users
0.1190000000	gained much
0.1190000000	decided by
0.1190000000	s theory
0.1190000000	particular emphasis
0.1190000000	2 sqrt
0.1190000000	less frequently
0.1190000000	several thousand
0.1190000000	effectiveness and
0.1190000000	neighbor k
0.1190000000	for individual
0.1190000000	for temporal
0.1190000000	from event
0.1190000000	judged by
0.1190000000	certain extent
0.1190000000	mainly because
0.1190000000	entailed by
0.1190000000	the calculations
0.1190000000	the autonomous
0.1190000000	the expressivity
0.1190000000	the photometric
0.1190000000	most famous
0.1190000000	the tail
0.1190000000	the bit
0.1190000000	agrees with
0.1190000000	all users
0.1190000000	bring about
0.1190000000	such measures
0.1190000000	such attacks
0.1190000000	iterates between
0.1190000000	of universal
0.1190000000	of world
0.1190000000	of square
0.1190000000	of hybrid
0.1190000000	of incomplete
0.1190000000	of neighbors
0.1190000000	of keypoint
0.1190000000	established by
0.1190000000	these scores
0.1190000000	an xml
0.1190000000	to privacy
0.1190000000	by substituting
0.1190000000	by avoiding
0.1190000000	by iterating
0.1190000000	intuition about
0.1190000000	becoming popular
0.1190000000	non dominated
0.1190000000	and relate
0.1190000000	next iteration
0.1190000000	teacher s
0.1190000000	a shift
0.1190000000	crawled from
0.1180000000	using deep learning for
0.1180000000	this paper aims to
0.1180000000	a neural network and
0.1180000000	the performance of two
0.1180000000	the proposed model and
0.1180000000	experimental results on several
0.1180000000	the input image to
0.1180000000	the training set to
0.1180000000	over existing state of
0.1180000000	a np hard
0.1180000000	to supervised learning
0.1180000000	of hidden units
0.1180000000	the feature extractor
0.1180000000	the maximum margin
0.1180000000	and high level
0.1180000000	and subspace clustering
0.1180000000	new lower bounds
0.1180000000	the algorithms used
0.1180000000	the computational power
0.1180000000	the true and
0.1180000000	of observed data
0.1180000000	of images in
0.1180000000	of intra class
0.1180000000	to locate and
0.1180000000	and residual networks
0.1180000000	of images by
0.1180000000	with convolutional networks
0.1180000000	a linear subspace
0.1180000000	a network with
0.1180000000	the numbers of
0.1180000000	of convolutional networks
0.1180000000	the first to
0.1180000000	in rgb d
0.1180000000	a classifier in
0.1180000000	the case in
0.1180000000	the image into
0.1180000000	the parts of
0.1180000000	the benchmark dataset
0.1180000000	the small size
0.1180000000	of neural network
0.1180000000	and incomplete information
0.1180000000	on real images
0.1180000000	on data sets
0.1180000000	the dynamics and
0.1180000000	the target class
0.1180000000	the error by
0.1180000000	for estimation of
0.1180000000	of latent factors
0.1180000000	of dialogue systems
0.1180000000	elastic net and
0.1180000000	a positive definite
0.1180000000	the knowledge from
0.1180000000	the layers of
0.1180000000	for link prediction
0.1180000000	different choices of
0.1180000000	the parameters for
0.1180000000	of cnns for
0.1180000000	the minimum of
0.1180000000	the human body
0.1180000000	the rates of
0.1180000000	the visual similarity
0.1180000000	the performance on
0.1180000000	of input images
0.1180000000	the result to
0.1180000000	of current methods
0.1180000000	the algorithm proposed
0.1180000000	the generative process
0.1180000000	first order logical
0.1180000000	work well on
0.1180000000	of sequences of
0.1180000000	the subspace clustering
0.1180000000	the bayesian inference
0.1180000000	images corrupted by
0.1180000000	the foreground and
0.1180000000	performance improvement on
0.1180000000	the unsupervised learning
0.1180000000	for pattern recognition
0.1180000000	from multi view
0.1180000000	features extracted by
0.1180000000	in image segmentation
0.1180000000	recently proposed as
0.1180000000	on images from
0.1180000000	on supervised learning
0.1180000000	3d structure of
0.1180000000	the art with
0.1180000000	various neural network
0.1180000000	common practice to
0.1180000000	of spatio temporal
0.1180000000	the deep architecture
0.1180000000	the underlying data
0.1180000000	b with
0.1180000000	enumeration of
0.1180000000	much work
0.1180000000	prediction on
0.1180000000	two part
0.1180000000	each set
0.1180000000	for international
0.1180000000	k way
0.1180000000	succeed at
0.1180000000	the targets
0.1180000000	the mu
0.1180000000	the blank
0.1180000000	the boltzmann
0.1180000000	c for
0.1180000000	rate on
0.1180000000	therefore propose
0.1180000000	lbp and
0.1180000000	such graphs
0.1180000000	no clear
0.1180000000	of b
0.1180000000	of augmented
0.1180000000	of re
0.1180000000	particularly relevant
0.1180000000	of well
0.1180000000	interpolation and
0.1180000000	to novel
0.1180000000	little or
0.1180000000	time algorithms
0.1180000000	in e
0.1180000000	a multiagent
0.1180000000	a de
0.1170000000	existing methods in terms of
0.1170000000	the field of evolutionary
0.1170000000	non parametric regression
0.1170000000	and feature selection
0.1170000000	of answer set
0.1170000000	used for clustering
0.1170000000	the collaborative filtering
0.1170000000	in domain adaptation
0.1170000000	in deep learning
0.1170000000	against adversarial perturbations
0.1170000000	and weakly supervised
0.1170000000	in linear time
0.1170000000	the knowledge representation
0.1170000000	the generator network
0.1170000000	of training instances
0.1170000000	the gated recurrent
0.1170000000	and spatial information
0.1170000000	in neural networks
0.1170000000	the local context
0.1170000000	a domain adaptation
0.1170000000	of social media
0.1170000000	the performance improvement
0.1170000000	from training data
0.1170000000	the network size
0.1170000000	in real data
0.1170000000	in complex networks
0.1170000000	the two classes
0.1170000000	in visual recognition
0.1170000000	a human brain
0.1170000000	non uniform sampling
0.1170000000	the final classification
0.1170000000	to draw samples
0.1170000000	the art clustering
0.1170000000	the art automatic
0.1170000000	the art descriptors
0.1170000000	relatively easy
0.1170000000	insufficient for
0.1170000000	this state
0.1170000000	one hour
0.1170000000	user by
0.1170000000	new perspectives
0.1170000000	every node
0.1170000000	usually suffer
0.1170000000	cause of
0.1170000000	3d positions
0.1170000000	algorithms of
0.1170000000	question in
0.1170000000	answering over
0.1170000000	as shape
0.1170000000	quite promising
0.1170000000	3d convolution
0.1170000000	second moment
0.1170000000	on bayesian
0.1170000000	each tweet
0.1170000000	for evolutionary
0.1170000000	decomposes into
0.1170000000	not admit
0.1170000000	just like
0.1170000000	the tightest
0.1170000000	the 6
0.1170000000	the sender
0.1170000000	most influential
0.1170000000	the 19th
0.1170000000	the elementary
0.1170000000	the overhead
0.1170000000	the hub5
0.1170000000	the min
0.1170000000	the driving
0.1170000000	rate to
0.1170000000	the oldest
0.1170000000	make recommendations
0.1170000000	series using
0.1170000000	thorough evaluation
0.1170000000	all words
0.1170000000	semantics from
0.1170000000	path following
0.1170000000	grammar as
0.1170000000	but lacks
0.1170000000	of robot
0.1170000000	of literature
0.1170000000	only minor
0.1170000000	of sharing
0.1170000000	of critical
0.1170000000	of flight
0.1170000000	co localization
0.1170000000	oracle and
0.1170000000	an idealized
0.1170000000	an rkhs
0.1170000000	often encountered
0.1170000000	to synthesise
0.1170000000	to name
0.1170000000	to memory
0.1170000000	departure from
0.1170000000	quality in
0.1170000000	filtering on
0.1170000000	power as
0.1170000000	by social
0.1170000000	by inserting
0.1170000000	by summing
0.1170000000	computing as
0.1170000000	far field
0.1170000000	n items
0.1170000000	contain rich
0.1170000000	and behavior
0.1170000000	non atomic
0.1170000000	and crossover
0.1170000000	and fractional
0.1170000000	factorization for
0.1170000000	quantization for
0.1170000000	diagnosis system
0.1170000000	a behavior
0.1170000000	a codebook
0.1170000000	10 100
0.1170000000	in vitro
0.1170000000	1 data
0.1170000000	d cameras
0.1170000000	a conflict
0.1170000000	in class
0.1170000000	variations and
0.1170000000	kernels in
0.1160000000	a deep network to
0.1160000000	able to deal with
0.1160000000	the input image and
0.1160000000	the search space and
0.1160000000	different algorithms and
0.1160000000	two datasets with
0.1160000000	top 1 and
0.1160000000	problems of interest
0.1160000000	variables such as
0.1160000000	by use of
0.1160000000	the need to
0.1160000000	constraints such as
0.1160000000	an understanding of
0.1160000000	a new boosting
0.1160000000	a model from
0.1160000000	a space of
0.1160000000	of discrete time
0.1160000000	approach and show
0.1160000000	performance of different
0.1160000000	the one dimensional
0.1160000000	tasks by using
0.1160000000	baseline of
0.1160000000	labels given
0.1160000000	architectures to
0.1160000000	models across
0.1160000000	size while
0.1160000000	regression on
0.1160000000	few iterations
0.1160000000	style to
0.1160000000	style from
0.1160000000	sequence with
0.1160000000	much longer
0.1160000000	among agents
0.1160000000	into small
0.1160000000	first train
0.1160000000	specifications for
0.1160000000	issued from
0.1160000000	emotions and
0.1160000000	robots in
0.1160000000	language of
0.1160000000	cryptanalysis of
0.1160000000	stage and
0.1160000000	focussed on
0.1160000000	framed as
0.1160000000	from well
0.1160000000	module with
0.1160000000	many more
0.1160000000	for ai
0.1160000000	for statistical
0.1160000000	for eeg
0.1160000000	line to
0.1160000000	from optical
0.1160000000	descriptor and
0.1160000000	module in
0.1160000000	resides in
0.1160000000	on soft
0.1160000000	each function
0.1160000000	shorter than
0.1160000000	computations of
0.1160000000	near linear
0.1160000000	not so
0.1160000000	symbolic and
0.1160000000	annotation in
0.1160000000	the mining
0.1160000000	certain kinds
0.1160000000	the phylogenetic
0.1160000000	subclasses of
0.1160000000	the secondary
0.1160000000	the google
0.1160000000	the lateral
0.1160000000	made to
0.1160000000	shafer s
0.1160000000	descent for
0.1160000000	attributes from
0.1160000000	proof system
0.1160000000	small n
0.1160000000	pca on
0.1160000000	contexts in
0.1160000000	paper in
0.1160000000	i for
0.1160000000	imagenet with
0.1160000000	of tumor
0.1160000000	matching in
0.1160000000	only recently
0.1160000000	graphs into
0.1160000000	of unit
0.1160000000	no explicit
0.1160000000	of de
0.1160000000	of opinions
0.1160000000	search to
0.1160000000	edge of
0.1160000000	privacy to
0.1160000000	vertices of
0.1160000000	lasso to
0.1160000000	detector and
0.1160000000	perturbations and
0.1160000000	to indicate
0.1160000000	to semantic
0.1160000000	input with
0.1160000000	transition of
0.1160000000	compression for
0.1160000000	operators to
0.1160000000	trackers and
0.1160000000	conditioning and
0.1160000000	cameras to
0.1160000000	time delays
0.1160000000	graph using
0.1160000000	time domain
0.1160000000	approximation with
0.1160000000	optical and
0.1160000000	by multiplying
0.1160000000	rnn with
0.1160000000	features on
0.1160000000	spectra and
0.1160000000	target or
0.1160000000	between multi
0.1160000000	pixel or
0.1160000000	exploring and
0.1160000000	and saliency
0.1160000000	classification to
0.1160000000	hypotheses with
0.1160000000	rules using
0.1160000000	transcription and
0.1160000000	cluster and
0.1160000000	previously seen
0.1160000000	non monotone
0.1160000000	non negligible
0.1160000000	rules with
0.1160000000	with memory
0.1160000000	and makes
0.1160000000	text with
0.1160000000	and automatically
0.1160000000	and promoter
0.1160000000	progression and
0.1160000000	allocation to
0.1160000000	schedule of
0.1160000000	photos and
0.1160000000	four major
0.1160000000	four distinct
0.1160000000	per unit
0.1160000000	tighter than
0.1160000000	d sensors
0.1160000000	20 years
0.1160000000	segmentation for
0.1160000000	speedups over
0.1160000000	1 with
0.1160000000	proofs and
0.1160000000	catalogue of
0.1160000000	fragments and
0.1160000000	invested in
0.1150000000	a low dimensional vector
0.1150000000	a low dimensional embedding
0.1150000000	from convolutional neural networks
0.1150000000	with support vector machines
0.1150000000	via stochastic gradient descent
0.1150000000	a low dimensional feature
0.1150000000	on convolutional neural networks
0.1150000000	many machine learning algorithms
0.1150000000	for stochastic gradient descent
0.1150000000	of artificial neural networks
0.1150000000	of machine learning models
0.1150000000	and generative adversarial networks
0.1150000000	a multi label classification
0.1150000000	on hand crafted features
0.1150000000	on high dimensional datasets
0.1150000000	for markov random fields
0.1150000000	the art methods including
0.1150000000	with deep generative models
0.1150000000	various natural language processing
0.1150000000	for markov decision processes
0.1150000000	of machine learning based
0.1150000000	on recurrent neural networks
0.1150000000	with high dimensional data
0.1150000000	by generative adversarial networks
0.1150000000	with deep reinforcement learning
0.1150000000	of machine learning methods
0.1150000000	in multi agent systems
0.1150000000	of artificial neural network
0.1150000000	in high dimensional data
0.1150000000	to natural language processing
0.1150000000	of semi supervised learning
0.1150000000	to large scale data
0.1150000000	to large scale datasets
0.1150000000	to large scale problems
0.1150000000	of natural language processing
0.1150000000	of natural language sentences
0.1150000000	several real world datasets
0.1150000000	the natural language processing
0.1150000000	using real world data
0.1150000000	and machine learning methods
0.1150000000	and machine learning techniques
0.1150000000	and deep learning based
0.1150000000	a closed form expression
0.1150000000	for real world applications
0.1150000000	using machine learning techniques
0.1150000000	using machine learning algorithms
0.1150000000	for hidden markov models
0.1150000000	and answer set programming
0.1150000000	different machine learning algorithms
0.1150000000	for high dimensional data
0.1150000000	for high dimensional problems
0.1150000000	use recurrent neural networks
0.1150000000	and deep neural network
0.1150000000	and reinforcement learning rl
0.1150000000	and latent dirichlet allocation
0.1150000000	and recurrent neural network
0.1150000000	a machine learning method
0.1150000000	with answer set programming
0.1150000000	three real world datasets
0.1150000000	and deep neural networks
0.1150000000	with deep neural networks
0.1150000000	with stochastic gradient descent
0.1150000000	a deep learning network
0.1150000000	a word error rate
0.1150000000	with large scale data
0.1150000000	and semi supervised learning
0.1150000000	for large scale applications
0.1150000000	a neural network approach
0.1150000000	on answer set programming
0.1150000000	of large scale data
0.1150000000	for large scale optimization
0.1150000000	and real world applications
0.1150000000	a multiple instance learning
0.1150000000	of empirical risk minimization
0.1150000000	the proposed approach achieves
0.1150000000	the proposed framework achieves
0.1150000000	of probabilistic graphical models
0.1150000000	the proposed framework outperforms
0.1150000000	the proposed method learns
0.1150000000	for large scale data
0.1150000000	and real world datasets
0.1150000000	the proposed method achieved
0.1150000000	the low dimensional manifold
0.1150000000	in markov decision processes
0.1150000000	the proposed method utilizes
0.1150000000	for latent dirichlet allocation
0.1150000000	for large scale datasets
0.1150000000	for large scale learning
0.1150000000	the proposed method improves
0.1150000000	the proposed method performs
0.1150000000	the support vector machines
0.1150000000	and real world data
0.1150000000	and real world problems
0.1150000000	using support vector machine
0.1150000000	using support vector machines
0.1150000000	by deep neural networks
0.1150000000	in real world problems
0.1150000000	in computed tomography ct
0.1150000000	of markov decision processes
0.1150000000	using natural language processing
0.1150000000	the experimental results confirm
0.1150000000	using deep reinforcement learning
0.1150000000	by stochastic gradient descent
0.1150000000	a data driven method
0.1150000000	using artificial neural networks
0.1150000000	the experimental results obtained
0.1150000000	in real world data
0.1150000000	for convolutional neural networks
0.1150000000	and conditional random fields
0.1150000000	of fully convolutional networks
0.1150000000	using stochastic gradient descent
0.1150000000	with hand crafted features
0.1150000000	and particle swarm optimization
0.1150000000	a stochastic gradient descent
0.1150000000	the proposed model achieves
0.1150000000	for recurrent neural networks
0.1150000000	and stochastic gradient descent
0.1150000000	a pre trained convolutional
0.1150000000	of rough set theory
0.1150000000	the proposed model significantly
0.1150000000	3d convolutional neural networks
0.1150000000	the proposed model outperforms
0.1150000000	in markov random fields
0.1150000000	of deep learning architectures
0.1150000000	and artificial neural networks
0.1150000000	of high resolution images
0.1150000000	of high dimensional data
0.1150000000	and artificial neural network
0.1150000000	3d convolutional neural network
0.1150000000	of real world applications
0.1150000000	of deep learning algorithms
0.1150000000	of deep learning models
0.1150000000	of deep learning methods
0.1150000000	of deep learning techniques
0.1150000000	a pre trained deep
0.1150000000	in word error rate
0.1150000000	of support vector machine
0.1150000000	of particle swarm optimization
0.1150000000	and convolutional neural networks
0.1150000000	of support vector machines
0.1150000000	of deep reinforcement learning
0.1150000000	of deep neural network
0.1150000000	for medical image segmentation
0.1150000000	to real world applications
0.1150000000	from high dimensional data
0.1150000000	to real world data
0.1150000000	of neural network models
0.1150000000	of neural network based
0.1150000000	between input and output
0.1150000000	a reinforcement learning rl
0.1150000000	as principal component analysis
0.1150000000	as recurrent neural networks
0.1150000000	a real world scenario
0.1150000000	in dempster shafer theory
0.1150000000	of multi agent systems
0.1150000000	a real world problem
0.1150000000	for word sense disambiguation
0.1150000000	the particle swarm optimization
0.1150000000	five real world datasets
0.1150000000	the number of documents
0.1150000000	for support vector machines
0.1150000000	for named entity recognition
0.1150000000	using principal component analysis
0.1150000000	a real world application
0.1150000000	a high dimensional feature
0.1150000000	a large scale image
0.1150000000	a large scale benchmark
0.1150000000	in semi supervised learning
0.1150000000	the proposed algorithm performs
0.1150000000	an open source software
0.1150000000	a natural language processing
0.1150000000	a supervised machine learning
0.1150000000	novel deep learning based
0.1150000000	with recurrent neural networks
0.1150000000	two real world applications
0.1150000000	two real world datasets
0.1150000000	of fully connected layers
0.1150000000	the training set size
0.1150000000	with generative adversarial networks
0.1150000000	with convolutional neural networks
0.1150000000	and principal component analysis
0.1150000000	using recurrent neural networks
0.1150000000	using hidden markov models
0.1150000000	using answer set programming
0.1150000000	using particle swarm optimization
0.1150000000	in probabilistic graphical models
0.1150000000	from natural language processing
0.1150000000	and named entity recognition
0.1150000000	of recurrent neural networks
0.1150000000	a low rank approximation
0.1150000000	for fine grained image
0.1150000000	of recurrent neural network
0.1150000000	of stochastic gradient descent
0.1150000000	of facial action units
0.1150000000	using convolutional neural network
0.1150000000	very deep neural networks
0.1150000000	the first component
0.1150000000	a new evaluation
0.1150000000	to learning from
0.1150000000	the background and
0.1150000000	function used in
0.1150000000	the system architecture
0.1150000000	of events and
0.1150000000	surface in
0.1150000000	directed towards
0.1150000000	this pattern
0.1150000000	box and
0.1150000000	this solution
0.1150000000	users with
0.1150000000	sentence into
0.1150000000	routing and
0.1150000000	head and
0.1150000000	use multi
0.1150000000	ranking and
0.1150000000	different initial
0.1150000000	distribution system
0.1150000000	layers using
0.1150000000	several decades
0.1150000000	rewards and
0.1150000000	point from
0.1150000000	robots and
0.1150000000	tagging of
0.1150000000	localization on
0.1150000000	fields and
0.1150000000	svm for
0.1150000000	many disciplines
0.1150000000	view and
0.1150000000	on chinese
0.1150000000	moving towards
0.1150000000	many data
0.1150000000	for patient
0.1150000000	each expert
0.1150000000	for dnn
0.1150000000	on unknown
0.1150000000	for similarity
0.1150000000	possibility and
0.1150000000	each experiment
0.1150000000	code to
0.1150000000	generalizes across
0.1150000000	on uncertainty
0.1150000000	2d facial
0.1150000000	threshold of
0.1150000000	logitboost and
0.1150000000	critique of
0.1150000000	susceptibility to
0.1150000000	expression changes
0.1150000000	reviews on
0.1150000000	region to
0.1150000000	some low
0.1150000000	the pancreas
0.1150000000	the simulations
0.1150000000	the architectures
0.1150000000	the screen
0.1150000000	surprisingly good
0.1150000000	the discriminant
0.1150000000	admitted to
0.1150000000	fitting in
0.1150000000	interests of
0.1150000000	f1 and
0.1150000000	forest to
0.1150000000	completion from
0.1150000000	e learning
0.1150000000	operations per
0.1150000000	such global
0.1150000000	addition of
0.1150000000	rmse of
0.1150000000	score by
0.1150000000	structure on
0.1150000000	detectors from
0.1150000000	forest for
0.1150000000	exemplified by
0.1150000000	pointers to
0.1150000000	answers and
0.1150000000	action value
0.1150000000	patterns using
0.1150000000	independence of
0.1150000000	studied before
0.1150000000	human to
0.1150000000	of label
0.1150000000	of projection
0.1150000000	of semi
0.1150000000	search of
0.1150000000	of morphology
0.1150000000	of customers
0.1150000000	of canonical
0.1150000000	of prioritized
0.1150000000	of devices
0.1150000000	more parameters
0.1150000000	distinguish among
0.1150000000	of rnns
0.1150000000	of forest
0.1150000000	preconditions and
0.1150000000	pages to
0.1150000000	cubic time
0.1150000000	refinements of
0.1150000000	self attention
0.1150000000	trees of
0.1150000000	compression to
0.1150000000	distance for
0.1150000000	step toward
0.1150000000	these attacks
0.1150000000	actions taken
0.1150000000	to personalize
0.1150000000	objects but
0.1150000000	these errors
0.1150000000	to diversify
0.1150000000	to calibrate
0.1150000000	words for
0.1150000000	beliefs in
0.1150000000	between 3d
0.1150000000	between english
0.1150000000	by reformulating
0.1150000000	uniform and
0.1150000000	by correlating
0.1150000000	similarity on
0.1150000000	values using
0.1150000000	weighted k
0.1150000000	and grouping
0.1150000000	and advantages
0.1150000000	and proof
0.1150000000	and speaker
0.1150000000	and posterior
0.1150000000	with rules
0.1150000000	and median
0.1150000000	stopping and
0.1150000000	nn and
0.1150000000	label or
0.1150000000	and language
0.1150000000	decoding and
0.1150000000	scene as
0.1150000000	per node
0.1150000000	care about
0.1150000000	a compressed
0.1150000000	a private
0.1150000000	a contrastive
0.1150000000	update for
0.1150000000	a default
0.1150000000	occur during
0.1150000000	length in
0.1150000000	initiated by
0.1140000000	the art methods in
0.1140000000	the same scene
0.1140000000	to operate on
0.1140000000	to lie on
0.1140000000	the very first
0.1140000000	to generalize to
0.1140000000	the camera wearer
0.1140000000	becomes even more
0.1140000000	other competing
0.1140000000	this last
0.1140000000	this limit
0.1140000000	this ability
0.1140000000	two recent
0.1140000000	candidates and
0.1140000000	for retrieval
0.1140000000	for defining
0.1140000000	from several
0.1140000000	for deciding
0.1140000000	alternate between
0.1140000000	some methods
0.1140000000	the abstraction
0.1140000000	the referential
0.1140000000	contributions i
0.1140000000	of maximizing
0.1140000000	of clothing
0.1140000000	of additive
0.1140000000	of classifying
0.1140000000	argue for
0.1140000000	while existing
0.1140000000	an optimum
0.1140000000	an expected
0.1140000000	by capturing
0.1140000000	also observe
0.1140000000	those in
0.1140000000	and minimize
0.1140000000	and determine
0.1140000000	property and
0.1140000000	a python
0.1140000000	a technology
0.1140000000	a neighborhood
0.1140000000	in markov
0.1140000000	a phoneme
0.1130000000	a set of features
0.1130000000	the field of natural
0.1130000000	the use of deep
0.1130000000	the use of convolutional
0.1130000000	the number of workers
0.1130000000	with non linear
0.1130000000	a non stationary
0.1130000000	the second case
0.1130000000	between two images
0.1130000000	the time dependent
0.1130000000	use of multiple
0.1130000000	the top level
0.1130000000	decision maker s
0.1130000000	gain insight into
0.1130000000	a new local
0.1130000000	the full model
0.1130000000	of such networks
0.1130000000	the two paradigms
0.1130000000	the best model
0.1130000000	few works
0.1130000000	new knowledge
0.1130000000	new dataset
0.1130000000	new online
0.1130000000	duality between
0.1130000000	new avenues
0.1130000000	this implementation
0.1130000000	source side
0.1130000000	three phases
0.1130000000	as 1
0.1130000000	requiring less
0.1130000000	first identify
0.1130000000	as semantic
0.1130000000	for accuracy
0.1130000000	on dependency
0.1130000000	each face
0.1130000000	from positive
0.1130000000	for one
0.1130000000	on motion
0.1130000000	for spatial
0.1130000000	from frame
0.1130000000	each video
0.1130000000	the associations
0.1130000000	the correction
0.1130000000	the 5
0.1130000000	the comprehension
0.1130000000	the counting
0.1130000000	the elicitation
0.1130000000	the pi
0.1130000000	the winner
0.1130000000	the manifolds
0.1130000000	the beliefs
0.1130000000	the host
0.1130000000	the environments
0.1130000000	the cooperative
0.1130000000	the neighboring
0.1130000000	the written
0.1130000000	the guarantee
0.1130000000	such errors
0.1130000000	through experimentation
0.1130000000	system output
0.1130000000	such network
0.1130000000	of linking
0.1130000000	of describing
0.1130000000	of conflict
0.1130000000	of interventions
0.1130000000	of opinion
0.1130000000	of embodied
0.1130000000	of generalization
0.1130000000	of marginals
0.1130000000	of uncertain
0.1130000000	of normalizing
0.1130000000	of cars
0.1130000000	of rouge
0.1130000000	hold out
0.1130000000	any continuous
0.1130000000	to translation
0.1130000000	acquired during
0.1130000000	these strategies
0.1130000000	by user
0.1130000000	and demand
0.1130000000	and orthogonal
0.1130000000	and item
0.1130000000	with point
0.1130000000	and region
0.1130000000	and captions
0.1130000000	with domain
0.1130000000	with weights
0.1130000000	and knowledge
0.1130000000	with images
0.1130000000	and threshold
0.1130000000	and market
0.1130000000	in instance
0.1130000000	a turing
0.1130000000	a co
0.1130000000	a decoding
0.1130000000	in smart
0.1130000000	in 8
0.1130000000	a controlled
0.1130000000	in embedded
0.1130000000	a biomedical
0.1130000000	in sampling
0.1130000000	in water
0.1130000000	in retrieval
0.1120000000	of reinforcement learning in
0.1120000000	the search space of
0.1120000000	np hard even
0.1120000000	more general than
0.1120000000	this task and
0.1120000000	computer vision research
0.1120000000	seamless integration of
0.1120000000	against adversarial attacks
0.1120000000	mnist cifar10 and
0.1120000000	100 times faster
0.1120000000	gain insights into
0.1120000000	the results also
0.1120000000	with noise and
0.1120000000	of ant colony
0.1120000000	the literature in
0.1120000000	a large extent
0.1120000000	by way of
0.1120000000	and quality of
0.1120000000	the model learns
0.1120000000	challenging as
0.1120000000	new samples
0.1120000000	challenging and
0.1120000000	less informative
0.1120000000	several families
0.1120000000	2 norm
0.1120000000	corrupted with
0.1120000000	3 000
0.1120000000	areas and
0.1120000000	the eyes
0.1120000000	ambiguity in
0.1120000000	such cases
0.1120000000	co adaptation
0.1120000000	of currently
0.1120000000	co evolutionary
0.1120000000	acquired at
0.1120000000	often fails
0.1120000000	to discern
0.1120000000	to supervise
0.1120000000	an urgent
0.1120000000	to evade
0.1120000000	t norm
0.1120000000	by watching
0.1120000000	choose among
0.1120000000	n recommendation
0.1120000000	and remove
0.1120000000	with discrete
0.1120000000	r cnns
0.1110000000	the use of non
0.1110000000	the training set and
0.1110000000	complexity compared to
0.1110000000	spectral clustering and
0.1110000000	semantic labeling of
0.1110000000	empirically evaluated on
0.1110000000	semantic content of
0.1110000000	semantic information from
0.1110000000	semantic information in
0.1110000000	semantic information and
0.1110000000	semantic similarity of
0.1110000000	powerful tool in
0.1110000000	learning process in
0.1110000000	fixed number of
0.1110000000	state spaces and
0.1110000000	theoretic approach to
0.1110000000	criteria based on
0.1110000000	data association and
0.1110000000	topic models and
0.1110000000	evaluation based on
0.1110000000	sparse representation and
0.1110000000	clustering algorithm to
0.1110000000	competing methods in
0.1110000000	np hard for
0.1110000000	study based on
0.1110000000	substantial improvement over
0.1110000000	architecture based on
0.1110000000	natural language in
0.1110000000	topic modeling and
0.1110000000	high dimensional and
0.1110000000	complex interactions between
0.1110000000	convergence guarantees of
0.1110000000	convergence speed and
0.1110000000	discriminant analysis with
0.1110000000	spectral properties of
0.1110000000	gold standard for
0.1110000000	proposed method first
0.1110000000	implementation based on
0.1110000000	increasing amounts of
0.1110000000	method achieves better
0.1110000000	present results on
0.1110000000	statistical models of
0.1110000000	image features to
0.1110000000	labeled data and
0.1110000000	topological structure of
0.1110000000	mnist dataset and
0.1110000000	variable number of
0.1110000000	relevant features for
0.1110000000	unified framework for
0.1110000000	topic modeling with
0.1110000000	recent trends in
0.1110000000	patterns based on
0.1110000000	additional information about
0.1110000000	learning architecture for
0.1110000000	semantic properties of
0.1110000000	data generated from
0.1110000000	strong performance on
0.1110000000	wider range of
0.1110000000	data collection and
0.1110000000	visual features for
0.1110000000	mutual information and
0.1110000000	data generated by
0.1110000000	originally developed for
0.1110000000	social networks in
0.1110000000	feature engineering or
0.1110000000	input images and
0.1110000000	input images to
0.1110000000	classification method for
0.1110000000	extracted based on
0.1110000000	gaussian processes and
0.1110000000	sensor networks and
0.1110000000	proposed method provides
0.1110000000	proposed method in
0.1110000000	hinge loss and
0.1110000000	powerful tool for
0.1110000000	substantial improvement in
0.1110000000	np hard and
0.1110000000	lesion detection and
0.1110000000	variational inference with
0.1110000000	unbounded number of
0.1110000000	method consists of
0.1110000000	general overview of
0.1110000000	function subject to
0.1110000000	neural models for
0.1110000000	distributed representations for
0.1110000000	potentially lead to
0.1110000000	cost function in
0.1110000000	obtained results show
0.1110000000	detailed information about
0.1110000000	imaging based on
0.1110000000	learning systems and
0.1110000000	analysis techniques to
0.1110000000	potential benefits of
0.1110000000	probability theory to
0.1110000000	image denoising and
0.1110000000	empirically shown to
0.1110000000	recent research on
0.1110000000	information present in
0.1110000000	regions based on
0.1110000000	complexity analysis of
0.1110000000	decisions based on
0.1110000000	perform real time
0.1110000000	increasing number of
0.1110000000	maximum likelihood and
0.1110000000	higher level of
0.1110000000	marginal likelihood of
0.1110000000	ranked list of
0.1110000000	discriminant analysis and
0.1110000000	this gap and
0.1110000000	present results of
0.1110000000	challenges posed by
0.1110000000	based features for
0.1110000000	variational inference in
0.1110000000	gaussian processes for
0.1110000000	variational inference and
0.1110000000	relative importance of
0.1110000000	feature engineering and
0.1110000000	spectral clustering to
0.1110000000	learning process of
0.1110000000	significant improvements on
0.1110000000	proposed method and
0.1110000000	distributed implementation of
0.1110000000	complete set of
0.1110000000	maps generated by
0.1110000000	improvements compared to
0.1110000000	matrix factorization and
0.1110000000	difficult problem in
0.1110000000	method applied to
0.1110000000	topological features of
0.1110000000	labeled data for
0.1110000000	classifier based on
0.1110000000	random walks on
0.1110000000	high quality of
0.1110000000	recent research in
0.1110000000	intrinsic dimensionality of
0.1110000000	rate compared to
0.1110000000	comprehensive framework for
0.1110000000	gaussian processes with
0.1110000000	intrinsic structure of
0.1110000000	social media and
0.1110000000	labeled data to
0.1110000000	internal states of
0.1110000000	method consists in
0.1110000000	significant attention in
0.1110000000	knowledge base of
0.1110000000	comprehensive survey of
0.1110000000	prove convergence of
0.1110000000	internal model of
0.1110000000	magnitude faster than
0.1110000000	internal structure of
0.1110000000	statistical models for
0.1110000000	semantic information of
0.1110000000	important task in
0.1110000000	information embedded in
0.1110000000	textual description of
0.1110000000	highly accurate and
0.1110000000	linear convergence of
0.1110000000	matrix factorization to
0.1110000000	optimization framework for
0.1110000000	proposed method with
0.1110000000	proposed method against
0.1110000000	proposed method uses
0.1110000000	proposed method as
0.1110000000	proposed method on
0.1110000000	proposed method to
0.1110000000	proposed method for
0.1110000000	proposed method allows
0.1110000000	proposed method using
0.1110000000	proposed method gives
0.1110000000	proposed method by
0.1110000000	cost function of
0.1110000000	cost function for
0.1110000000	strategies based on
0.1110000000	information coming from
0.1110000000	methods suffer from
0.1110000000	information loss and
0.1110000000	learning rates and
0.1110000000	applications based on
0.1110000000	local optima and
0.1110000000	important feature of
0.1110000000	systems suffer from
0.1110000000	coordinate descent and
0.1110000000	clusters based on
0.1110000000	salient features of
0.1110000000	posterior probability of
0.1110000000	special attention to
0.1110000000	model learns to
0.1110000000	the medical imaging
0.1110000000	matrix factorization for
0.1110000000	image denoising using
0.1110000000	planning problems with
0.1110000000	representational power of
0.1110000000	spatial structure of
0.1110000000	model leads to
0.1110000000	comparative evaluation of
0.1110000000	simultaneous estimation of
0.1110000000	genetic algorithms and
0.1110000000	comprehensive evaluation of
0.1110000000	comprehensive analysis of
0.1110000000	computation cost of
0.1110000000	image features and
0.1110000000	significantly faster and
0.1110000000	high quality and
0.1110000000	empirical comparison of
0.1110000000	strong performance of
0.1110000000	image denoising via
0.1110000000	practical application of
0.1110000000	algorithms applied to
0.1110000000	language processing and
0.1110000000	comprehensive set of
0.1110000000	visual information from
0.1110000000	visual features from
0.1110000000	learned features and
0.1110000000	present results for
0.1110000000	present results from
0.1110000000	np hard to
0.1110000000	algorithm proposed by
0.1110000000	mechanism based on
0.1110000000	knowledge base and
0.1110000000	present state of
0.1110000000	correlation coefficient of
0.1110000000	wide variety of
0.1110000000	algorithm compared to
0.1110000000	sparse representation of
0.1110000000	sparse representation for
0.1110000000	optimization problems by
0.1110000000	cnn architecture for
0.1110000000	art algorithms in
0.1110000000	art algorithms and
0.1110000000	literature review of
0.1110000000	excellent results on
0.1110000000	level features and
0.1110000000	asymptotic analysis of
0.1110000000	architectures based on
0.1110000000	preprocessing step in
0.1110000000	proposed approach to
0.1110000000	art methods in
0.1110000000	joint learning of
0.1110000000	search algorithm for
0.1110000000	formal framework for
0.1110000000	linear models for
0.1110000000	semantic description of
0.1110000000	data point as
0.1110000000	real data and
0.1110000000	real data from
0.1110000000	language model and
0.1110000000	sample sizes and
0.1110000000	joint training of
0.1110000000	art methods by
0.1110000000	data arising from
0.1110000000	numerical simulations on
0.1110000000	successful application of
0.1110000000	compressed sensing and
0.1110000000	bayesian network and
0.1110000000	data structure for
0.1110000000	based models to
0.1110000000	significant gains in
0.1110000000	relative improvement of
0.1110000000	optimal set of
0.1110000000	cnn architectures and
0.1110000000	directly related to
0.1110000000	automated segmentation of
0.1110000000	class labels of
0.1110000000	class labels for
0.1110000000	rule based on
0.1110000000	powerful approach for
0.1110000000	step based on
0.1110000000	contextual information in
0.1110000000	learning approaches and
0.1110000000	temporal dynamics in
0.1110000000	information content of
0.1110000000	increasingly important to
0.1110000000	data point and
0.1110000000	data augmentation to
0.1110000000	data points and
0.1110000000	data points from
0.1110000000	data points into
0.1110000000	graph theory and
0.1110000000	predictive power of
0.1110000000	dataset consists of
0.1110000000	likelihood estimation for
0.1110000000	approaches fail to
0.1110000000	complex nature of
0.1110000000	optimal solution in
0.1110000000	optimal solution to
0.1110000000	based models of
0.1110000000	probabilistic approach for
0.1110000000	methods focus on
0.1110000000	growing body of
0.1110000000	attention mechanism for
0.1110000000	classification based on
0.1110000000	relevant information from
0.1110000000	art methods on
0.1110000000	conditional probability of
0.1110000000	synthetic datasets and
0.1110000000	increasingly important in
0.1110000000	equal number of
0.1110000000	excellent performance on
0.1110000000	excellent performance of
0.1110000000	high performance of
0.1110000000	challenging problem with
0.1110000000	relative improvement over
0.1110000000	knowledge based system
0.1110000000	selection based on
0.1110000000	alternative approach to
0.1110000000	significantly outperforms several
0.1110000000	bayesian framework for
0.1110000000	regression approach for
0.1110000000	activity recognition and
0.1110000000	simulated data and
0.1110000000	asymptotic properties of
0.1110000000	solution quality and
0.1110000000	proposed algorithm to
0.1110000000	hypothesis testing and
0.1110000000	bayesian network to
0.1110000000	systematic analysis of
0.1110000000	fundamental problems in
0.1110000000	fast algorithms for
0.1110000000	text mining and
0.1110000000	computing power and
0.1110000000	object detection from
0.1110000000	object detection on
0.1110000000	large corpora of
0.1110000000	supervised training of
0.1110000000	hierarchical representations of
0.1110000000	pixel level and
0.1110000000	belief propagation and
0.1110000000	random forest for
0.1110000000	transfer learning on
0.1110000000	object proposals and
0.1110000000	model benefits from
0.1110000000	images compared to
0.1110000000	quality compared to
0.1110000000	consistently outperforms other
0.1110000000	rich source of
0.1110000000	unlike prior work
0.1110000000	relative improvement in
0.1110000000	contextual information of
0.1110000000	predictive power and
0.1110000000	probability distributions on
0.1110000000	gaussian distribution and
0.1110000000	asymptotic behavior of
0.1110000000	probability distributions for
0.1110000000	learning approaches to
0.1110000000	probability distributions in
0.1110000000	learning approach using
0.1110000000	high precision and
0.1110000000	language understanding and
0.1110000000	probability distributions and
0.1110000000	challenging problem as
0.1110000000	small compared to
0.1110000000	heavily depends on
0.1110000000	transfer learning from
0.1110000000	object detection system
0.1110000000	probabilistic approach to
0.1110000000	an easy to
0.1110000000	published results on
0.1110000000	likelihood estimation of
0.1110000000	computational complexity in
0.1110000000	detailed analysis of
0.1110000000	based systems and
0.1110000000	active learning and
0.1110000000	current methods for
0.1110000000	excellent results in
0.1110000000	feature vectors in
0.1110000000	proposed model and
0.1110000000	main feature of
0.1110000000	large improvements in
0.1110000000	quality assessment of
0.1110000000	video based on
0.1110000000	proposed algorithm on
0.1110000000	excellent performance in
0.1110000000	probability distributions of
0.1110000000	optimal solution of
0.1110000000	probability distributions over
0.1110000000	real data show
0.1110000000	current state and
0.1110000000	tracking based on
0.1110000000	optimization problems using
0.1110000000	superior performance on
0.1110000000	improved accuracy and
0.1110000000	heavily dependent on
0.1110000000	automated classification of
0.1110000000	fixed set of
0.1110000000	current research in
0.1110000000	temporal dynamics of
0.1110000000	convolutional features and
0.1110000000	complex networks and
0.1110000000	experiments performed on
0.1110000000	convex functions and
0.1110000000	residual network for
0.1110000000	class labels and
0.1110000000	proposed approach uses
0.1110000000	knowledge bases and
0.1110000000	popular class of
0.1110000000	learning approach to
0.1110000000	activity recognition using
0.1110000000	activity recognition with
0.1110000000	search method for
0.1110000000	solution based on
0.1110000000	local features and
0.1110000000	computationally intensive and
0.1110000000	obtained based on
0.1110000000	proposed architecture on
0.1110000000	entity recognition and
0.1110000000	systematic comparison of
0.1110000000	proposed algorithms for
0.1110000000	synthetic data with
0.1110000000	attention mechanism and
0.1110000000	linear models in
0.1110000000	internal representations of
0.1110000000	level features for
0.1110000000	object detection by
0.1110000000	vast number of
0.1110000000	systematic study of
0.1110000000	classifier trained on
0.1110000000	community detection in
0.1110000000	impressive results in
0.1110000000	video sequences and
0.1110000000	framework leads to
0.1110000000	compact representation of
0.1110000000	residual learning for
0.1110000000	computational complexity as
0.1110000000	huge number of
0.1110000000	computational complexity for
0.1110000000	computational complexity and
0.1110000000	optimal solution and
0.1110000000	attention network for
0.1110000000	extracting features from
0.1110000000	methods relying on
0.1110000000	open problems in
0.1110000000	benchmark functions and
0.1110000000	feature vectors to
0.1110000000	feature vectors and
0.1110000000	small amounts of
0.1110000000	small portion of
0.1110000000	feature based and
0.1110000000	methods tend to
0.1110000000	learning methods to
0.1110000000	high degree of
0.1110000000	learning paradigm for
0.1110000000	rich set of
0.1110000000	achieve significantly better
0.1110000000	small subset of
0.1110000000	transfer learning for
0.1110000000	benchmark dataset and
0.1110000000	benchmark dataset for
0.1110000000	proposed algorithms in
0.1110000000	learning approach for
0.1110000000	proposed model on
0.1110000000	proposed model in
0.1110000000	sufficient condition for
0.1110000000	obtains state of
0.1110000000	proposed approach for
0.1110000000	proposed approach using
0.1110000000	proposed approach on
0.1110000000	proposed approach provides
0.1110000000	proposed approach over
0.1110000000	proposed approach in
0.1110000000	proposed algorithm for
0.1110000000	proposed algorithm and
0.1110000000	proposed algorithm uses
0.1110000000	simple algorithm for
0.1110000000	linear models and
0.1110000000	genetic algorithm with
0.1110000000	active learning for
0.1110000000	active learning with
0.1110000000	driven approach to
0.1110000000	term memory and
0.1110000000	methods attempt to
0.1110000000	rich representation of
0.1110000000	information provided by
0.1110000000	information theory and
0.1110000000	automated detection of
0.1110000000	learning approaches in
0.1110000000	optimization algorithms for
0.1110000000	optimization problems and
0.1110000000	typically rely on
0.1110000000	hash codes for
0.1110000000	cost effective and
0.1110000000	performed based on
0.1110000000	larger class of
0.1110000000	local features in
0.1110000000	rule based and
0.1110000000	rule based system
0.1110000000	main features of
0.1110000000	main advantage of
0.1110000000	superior performance of
0.1110000000	superior performance in
0.1110000000	superior performance to
0.1110000000	superior performance and
0.1110000000	mixture model with
0.1110000000	high performance in
0.1110000000	encouraging results on
0.1110000000	formal description of
0.1110000000	contextual information and
0.1110000000	contextual information from
0.1110000000	language model for
0.1110000000	significantly outperforms other
0.1110000000	processes based on
0.1110000000	high performance on
0.1110000000	high performance and
0.1110000000	parallel version of
0.1110000000	empirical investigation of
0.1110000000	framework consists of
0.1110000000	stochastic version of
0.1110000000	algorithm consists of
0.1110000000	processing based on
0.1110000000	challenging problem in
0.1110000000	challenging problem of
0.1110000000	challenging problem because
0.1110000000	challenging task of
0.1110000000	challenging task for
0.1110000000	challenging task as
0.1110000000	transfer learning with
0.1110000000	transfer learning to
0.1110000000	transfer learning using
0.1110000000	knowledge bases in
0.1110000000	learned directly from
0.1110000000	produce state of
0.1110000000	agent learns to
0.1110000000	model trained on
0.1110000000	model trained with
0.1110000000	unbiased estimator of
0.1110000000	popular algorithms for
0.1110000000	optimal algorithms for
0.1110000000	geometric structure of
0.1110000000	typically based on
0.1110000000	feature representations of
0.1110000000	feature representations from
0.1110000000	feature representations for
0.1110000000	significant advances in
0.1110000000	skip connections and
0.1110000000	solver based on
0.1110000000	cnn trained for
0.1110000000	source separation and
0.1110000000	representation learning with
0.1110000000	representation learning for
0.1110000000	provide examples of
0.1110000000	effective approach for
0.1110000000	based algorithms for
0.1110000000	open problem in
0.1110000000	manual annotation of
0.1110000000	pivotal role in
0.1110000000	great potential to
0.1110000000	robust method for
0.1110000000	vector space and
0.1110000000	hybrid approach for
0.1110000000	database consisting of
0.1110000000	substantial improvements in
0.1110000000	achieve real time
0.1110000000	cnn trained on
0.1110000000	dataset collected from
0.1110000000	qualitative results on
0.1110000000	real images and
0.1110000000	building blocks of
0.1110000000	approaches focus on
0.1110000000	extensive analysis of
0.1110000000	learning task and
0.1110000000	significant impact on
0.1110000000	aspects related to
0.1110000000	data coming from
0.1110000000	specifically designed to
0.1110000000	significant reduction in
0.1110000000	set theory and
0.1110000000	significant differences in
0.1110000000	learn features from
0.1110000000	robust detection of
0.1110000000	significant number of
0.1110000000	representations learned from
0.1110000000	generative models to
0.1110000000	super resolution via
0.1110000000	great potential in
0.1110000000	significant reduction of
0.1110000000	previous studies on
0.1110000000	mixture models and
0.1110000000	existing methods by
0.1110000000	semantics based on
0.1110000000	feature representations and
0.1110000000	detection based on
0.1110000000	the users of
0.1110000000	generative models for
0.1110000000	approach leads to
0.1110000000	information derived from
0.1110000000	key aspects of
0.1110000000	detection algorithms and
0.1110000000	digit recognition and
0.1110000000	monte carlo for
0.1110000000	monte carlo and
0.1110000000	np hardness of
0.1110000000	unsupervised training of
0.1110000000	dataset based on
0.1110000000	set based on
0.1110000000	dependency structure of
0.1110000000	analysis based on
0.1110000000	heuristic based on
0.1110000000	quantitative measure of
0.1110000000	key characteristics of
0.1110000000	saddle points and
0.1110000000	square root of
0.1110000000	f1 score on
0.1110000000	online learning for
0.1110000000	popular methods for
0.1110000000	optical flow between
0.1110000000	training process of
0.1110000000	graph representations of
0.1110000000	scheme based on
0.1110000000	a reproducing kernel
0.1110000000	information obtained from
0.1110000000	automatic classification of
0.1110000000	provide information about
0.1110000000	markov models and
0.1110000000	a nuclear norm
0.1110000000	spatial distribution of
0.1110000000	online learning and
0.1110000000	considerable improvement in
0.1110000000	solutions based on
0.1110000000	user preferences and
0.1110000000	computationally expensive and
0.1110000000	representation learning of
0.1110000000	semantic representations of
0.1110000000	computational models for
0.1110000000	arbitrarily close to
0.1110000000	learning method to
0.1110000000	multi dimensional and
0.1110000000	approximation guarantees for
0.1110000000	exact inference in
0.1110000000	large variation in
0.1110000000	provide state of
0.1110000000	local minima and
0.1110000000	training algorithm for
0.1110000000	computational approaches to
0.1110000000	computational aspects of
0.1110000000	images acquired from
0.1110000000	graph structure and
0.1110000000	studies focus on
0.1110000000	recognition performance on
0.1110000000	power consumption and
0.1110000000	significant role in
0.1110000000	important aspect of
0.1110000000	super resolution of
0.1110000000	existing methods on
0.1110000000	existing methods in
0.1110000000	existing methods and
0.1110000000	existing methods either
0.1110000000	existing methods to
0.1110000000	existing methods often
0.1110000000	existing methods of
0.1110000000	posterior probabilities of
0.1110000000	building block in
0.1110000000	source code of
0.1110000000	theoretical guarantee for
0.1110000000	gradient descent with
0.1110000000	routing problem with
0.1110000000	inference procedure for
0.1110000000	main objective of
0.1110000000	process model for
0.1110000000	simplified version of
0.1110000000	big data and
0.1110000000	central problem in
0.1110000000	important role for
0.1110000000	super resolution and
0.1110000000	simulation results on
0.1110000000	simulation study and
0.1110000000	hybrid approach to
0.1110000000	representations learned by
0.1110000000	vector space of
0.1110000000	scale datasets and
0.1110000000	experimental evaluation of
0.1110000000	parameters based on
0.1110000000	gradient descent in
0.1110000000	gradient descent and
0.1110000000	gradient descent to
0.1110000000	gradient descent or
0.1110000000	gradient descent for
0.1110000000	set consisting of
0.1110000000	great importance in
0.1110000000	great potential of
0.1110000000	remarkable success in
0.1110000000	underlying structure of
0.1110000000	accurate estimates of
0.1110000000	classifiers trained on
0.1110000000	supervised approach for
0.1110000000	extensive evaluation on
0.1110000000	extensive evaluation of
0.1110000000	source code for
0.1110000000	convex combination of
0.1110000000	theoretical study of
0.1110000000	manifold learning and
0.1110000000	comprehensive experiments on
0.1110000000	network structures and
0.1110000000	formal definition of
0.1110000000	regression problem with
0.1110000000	ct images of
0.1110000000	generative models and
0.1110000000	generative models of
0.1110000000	generative models with
0.1110000000	user interface for
0.1110000000	experimental comparison of
0.1110000000	this model with
0.1110000000	wide set of
0.1110000000	specially designed for
0.1110000000	vector representation of
0.1110000000	experimental study on
0.1110000000	experimental study of
0.1110000000	algorithm leads to
0.1110000000	performed experiments on
0.1110000000	decision making by
0.1110000000	optimization based on
0.1110000000	hidden layer of
0.1110000000	hidden layers of
0.1110000000	stationary point of
0.1110000000	automated method for
0.1110000000	information stored in
0.1110000000	structure based on
0.1110000000	information related to
0.1110000000	preliminary results of
0.1110000000	ground truth of
0.1110000000	generic framework for
0.1110000000	salient regions in
0.1110000000	expressive power and
0.1110000000	rich information about
0.1110000000	complexity bounds for
0.1110000000	low dimensional and
0.1110000000	success rate of
0.1110000000	information extraction system
0.1110000000	semantic relationships between
0.1110000000	low cost and
0.1110000000	prior knowledge and
0.1110000000	input space and
0.1110000000	based model for
0.1110000000	techniques applied to
0.1110000000	significant progress in
0.1110000000	general formulation of
0.1110000000	finds applications in
0.1110000000	squared error of
0.1110000000	fully automatic and
0.1110000000	fully connected and
0.1110000000	network architecture to
0.1110000000	randomized algorithm for
0.1110000000	information extraction from
0.1110000000	early detection and
0.1110000000	semantic structure of
0.1110000000	semantic segmentation in
0.1110000000	semantic segmentation on
0.1110000000	semantic segmentation and
0.1110000000	decision making with
0.1110000000	decision making for
0.1110000000	decision making in
0.1110000000	semantic segmentation using
0.1110000000	latent structure of
0.1110000000	convergence results for
0.1110000000	general methodology for
0.1110000000	evaluation metrics on
0.1110000000	evaluation metrics for
0.1110000000	evaluation metrics and
0.1110000000	data set to
0.1110000000	based representation of
0.1110000000	based methods for
0.1110000000	semantic analysis of
0.1110000000	character recognition system
0.1110000000	automatic recognition of
0.1110000000	classification models and
0.1110000000	hierarchical structure of
0.1110000000	means clustering and
0.1110000000	parameter estimation of
0.1110000000	systematic evaluation of
0.1110000000	arbitrary set of
0.1110000000	data set by
0.1110000000	data set in
0.1110000000	data set with
0.1110000000	recent works on
0.1110000000	recent works in
0.1110000000	lighting conditions and
0.1110000000	squared error and
0.1110000000	decision tree and
0.1110000000	the combinatorial explosion
0.1110000000	data size and
0.1110000000	hidden layer and
0.1110000000	based model of
0.1110000000	based methods on
0.1110000000	based methods in
0.1110000000	approach works well
0.1110000000	consistent improvements over
0.1110000000	automatic construction of
0.1110000000	bayesian treatment of
0.1110000000	provide insights into
0.1110000000	data set show
0.1110000000	ground truth from
0.1110000000	ground truth for
0.1110000000	face verification and
0.1110000000	data set from
0.1110000000	continuous state and
0.1110000000	pre training on
0.1110000000	temporal evolution of
0.1110000000	preliminary experiments on
0.1110000000	predictive accuracy of
0.1110000000	hidden states of
0.1110000000	significant challenge to
0.1110000000	yield state of
0.1110000000	bayesian inference and
0.1110000000	perform experiments on
0.1110000000	computed based on
0.1110000000	practical aspects of
0.1110000000	paper contributes to
0.1110000000	intelligence based on
0.1110000000	regularization based on
0.1110000000	latent structure in
0.1110000000	statistical methods for
0.1110000000	parameter estimation and
0.1110000000	cost compared to
0.1110000000	ground truth and
0.1110000000	bayesian inference of
0.1110000000	bayesian inference on
0.1110000000	quantitative evaluation of
0.1110000000	detector based on
0.1110000000	data set for
0.1110000000	based methods with
0.1110000000	results obtained using
0.1110000000	bayesian approach to
0.1110000000	results obtained from
0.1110000000	finite number of
0.1110000000	classification problem in
0.1110000000	input data into
0.1110000000	bayesian approach for
0.1110000000	actions based on
0.1110000000	results obtained by
0.1110000000	neural architecture for
0.1110000000	early detection of
0.1110000000	approach focuses on
0.1110000000	sample size n
0.1110000000	error rate on
0.1110000000	bayesian inference for
0.1110000000	minimal number of
0.1110000000	success rate and
0.1110000000	data set of
0.1110000000	high levels of
0.1110000000	alternative method for
0.1110000000	training procedure to
0.1110000000	linear transformation of
0.1110000000	semantic relationship between
0.1110000000	unified approach to
0.1110000000	bayesian inference in
0.1110000000	operators based on
0.1110000000	character recognition and
0.1110000000	large datasets and
0.1110000000	effective technique for
0.1110000000	preliminary results indicate
0.1110000000	expected number of
0.1110000000	translation rotation and
0.1110000000	exact recovery of
0.1110000000	bayesian learning of
0.1110000000	prior knowledge in
0.1110000000	sets based on
0.1110000000	training procedure for
0.1110000000	decision making and
0.1110000000	large datasets of
0.1110000000	specific knowledge and
0.1110000000	error rate in
0.1110000000	error rate by
0.1110000000	parameter space and
0.1110000000	mean shift algorithm
0.1110000000	network architecture with
0.1110000000	classification problem with
0.1110000000	input data and
0.1110000000	data set as
0.1110000000	unified approach for
0.1110000000	object segmentation in
0.1110000000	sample size and
0.1110000000	bleu score of
0.1110000000	convergence rate and
0.1110000000	convergence rate than
0.1110000000	parameter space of
0.1110000000	discriminative power of
0.1110000000	main contributions of
0.1110000000	preliminary results show
0.1110000000	matrix completion with
0.1110000000	inference based on
0.1110000000	main purpose of
0.1110000000	existing results in
0.1110000000	results obtained for
0.1110000000	results obtained with
0.1110000000	results obtained show
0.1110000000	results obtained in
0.1110000000	deep features and
0.1110000000	widely applied in
0.1110000000	linguistic features and
0.1110000000	reduction methods for
0.1110000000	nlp tasks such
0.1110000000	practical approach to
0.1110000000	practical implementation of
0.1110000000	statistical inference and
0.1110000000	activation function and
0.1110000000	evaluate performance of
0.1110000000	deep architecture for
0.1110000000	great progress in
0.1110000000	network structure from
0.1110000000	network structure and
0.1110000000	network structure to
0.1110000000	prior knowledge into
0.1110000000	prior knowledge to
0.1110000000	prior knowledge or
0.1110000000	geometric properties of
0.1110000000	convex combinations of
0.1110000000	practical usefulness of
0.1110000000	practical algorithm for
0.1110000000	practical algorithms for
0.1110000000	draw samples from
0.1110000000	fewer parameters and
0.1110000000	public datasets show
0.1110000000	public datasets and
0.1110000000	boltzmann machines for
0.1110000000	readily applied to
0.1110000000	expressive power of
0.1110000000	preliminary results on
0.1110000000	preliminary experiments show
0.1110000000	activation function for
0.1110000000	pre training and
0.1110000000	baseline methods on
0.1110000000	cnns trained on
0.1110000000	positive negative and
0.1110000000	receptive field of
0.1110000000	learning models for
0.1110000000	algorithm relies on
0.1110000000	supervised learning to
0.1110000000	criterion based on
0.1110000000	pose estimation with
0.1110000000	frame rate of
0.1110000000	object tracking with
0.1110000000	human perception and
0.1110000000	auto encoders to
0.1110000000	maximum number of
0.1110000000	search based on
0.1110000000	search algorithms for
0.1110000000	founded semantics for
0.1110000000	graphical model for
0.1110000000	estimation method for
0.1110000000	primarily focus on
0.1110000000	spectral decomposition of
0.1110000000	false positives and
0.1110000000	euclidean space and
0.1110000000	network architectures with
0.1110000000	pose estimation of
0.1110000000	pose estimation and
0.1110000000	networks trained with
0.1110000000	object tracking in
0.1110000000	remarkable performance in
0.1110000000	supervised learning using
0.1110000000	classification tasks and
0.1110000000	classification tasks in
0.1110000000	classification tasks on
0.1110000000	classification tasks with
0.1110000000	post processing of
0.1110000000	primarily focused on
0.1110000000	network consisting of
0.1110000000	word vectors and
0.1110000000	outlier detection and
0.1110000000	learning strategy to
0.1110000000	link prediction and
0.1110000000	empirical analysis of
0.1110000000	estimation accuracy and
0.1110000000	of pixels in
0.1110000000	concrete examples of
0.1110000000	prediction accuracy and
0.1110000000	text classification and
0.1110000000	common approach to
0.1110000000	case study in
0.1110000000	networks based on
0.1110000000	classification clustering and
0.1110000000	error bounds of
0.1110000000	error bounds for
0.1110000000	fine tuning of
0.1110000000	probabilistic model for
0.1110000000	probabilistic interpretation of
0.1110000000	systems rely on
0.1110000000	human performance in
0.1110000000	information encoded in
0.1110000000	human performance on
0.1110000000	loss function of
0.1110000000	noisy data and
0.1110000000	method leads to
0.1110000000	fine tuning with
0.1110000000	theoretical properties of
0.1110000000	image recognition and
0.1110000000	main idea of
0.1110000000	proposed framework on
0.1110000000	admm algorithm for
0.1110000000	algorithm designed for
0.1110000000	multiple objects in
0.1110000000	proposed framework for
0.1110000000	search space for
0.1110000000	effectively deal with
0.1110000000	loss bounds for
0.1110000000	positive negative or
0.1110000000	suitable choice of
0.1110000000	multiple levels of
0.1110000000	allowing users to
0.1110000000	supervised learning in
0.1110000000	great promise in
0.1110000000	method outperforms other
0.1110000000	linear model with
0.1110000000	networks trained on
0.1110000000	based classification of
0.1110000000	hyper parameters of
0.1110000000	fine tuning and
0.1110000000	medical imaging and
0.1110000000	method performs well
0.1110000000	multiple layers of
0.1110000000	high accuracy and
0.1110000000	case study of
0.1110000000	remote sensing and
0.1110000000	rapid advances in
0.1110000000	rapid development of
0.1110000000	search space in
0.1110000000	unifying framework for
0.1110000000	reconstruction based on
0.1110000000	strong assumptions on
0.1110000000	machine translation and
0.1110000000	great impact on
0.1110000000	theoretical analyses of
0.1110000000	architecture consists of
0.1110000000	prediction accuracy in
0.1110000000	generalization properties of
0.1110000000	optimization algorithm for
0.1110000000	framework consisting of
0.1110000000	detection algorithm for
0.1110000000	graphical model and
0.1110000000	loss function with
0.1110000000	face recognition via
0.1110000000	object detectors from
0.1110000000	potential solution to
0.1110000000	analysis relies on
0.1110000000	classification regression and
0.1110000000	loss functions for
0.1110000000	loss functions and
0.1110000000	method works well
0.1110000000	extensively evaluated on
0.1110000000	auto encoders and
0.1110000000	learning capability of
0.1110000000	research topics in
0.1110000000	meaningful information from
0.1110000000	meaningful representations of
0.1110000000	loss functions used
0.1110000000	high accuracy of
0.1110000000	common methods for
0.1110000000	segmentation task and
0.1110000000	programming approach to
0.1110000000	loss function for
0.1110000000	detection tracking and
0.1110000000	accurate detection of
0.1110000000	graphical structure of
0.1110000000	loss function in
0.1110000000	procedure based on
0.1110000000	learning framework for
0.1110000000	learning framework and
0.1110000000	learning framework to
0.1110000000	optimization algorithm to
0.1110000000	optimization algorithm and
0.1110000000	proposed framework and
0.1110000000	learning models on
0.1110000000	reported results on
0.1110000000	linear dynamical system
0.1110000000	programming approach for
0.1110000000	conceptually simple and
0.1110000000	binary classification and
0.1110000000	learning architectures for
0.1110000000	optimization techniques to
0.1110000000	main sources of
0.1110000000	main goal of
0.1110000000	descriptors based on
0.1110000000	objective functions and
0.1110000000	improving performance of
0.1110000000	fine tuning to
0.1110000000	performance relative to
0.1110000000	performance based on
0.1110000000	important tasks in
0.1110000000	efficient computation of
0.1110000000	great success in
0.1110000000	great success of
0.1110000000	spatial relations between
0.1110000000	image retrieval and
0.1110000000	theoretical properties and
0.1110000000	network models for
0.1110000000	reasoning based on
0.1110000000	image content and
0.1110000000	network architectures for
0.1110000000	network architectures and
0.1110000000	network architectures to
0.1110000000	image annotation and
0.1110000000	prediction accuracy of
0.1110000000	prediction accuracy for
0.1110000000	high accuracy for
0.1110000000	high accuracy in
0.1110000000	supervised learning on
0.1110000000	supervised learning of
0.1110000000	supervised learning for
0.1110000000	supervised learning from
0.1110000000	datasets consisting of
0.1110000000	significantly smaller than
0.1110000000	traditional approaches to
0.1110000000	machine translation to
0.1110000000	algorithms developed for
0.1110000000	significantly improved by
0.1110000000	prediction tasks and
0.1110000000	case study on
0.1110000000	face images from
0.1110000000	face recognition and
0.1110000000	users interact with
0.1110000000	recognition accuracy on
0.1110000000	explicit representation of
0.1110000000	direct application of
0.1110000000	primary goal of
0.1110000000	general model of
0.1110000000	embedding space and
0.1110000000	domain adaptation for
0.1110000000	proposed methods for
0.1110000000	joint estimation of
0.1110000000	cnn models and
0.1110000000	art performance in
0.1110000000	art performance on
0.1110000000	recent years and
0.1110000000	compact representations of
0.1110000000	metrics based on
0.1110000000	effective tool for
0.1110000000	statistical analysis on
0.1110000000	nuclear norm as
0.1110000000	promising performance in
0.1110000000	experimental results of
0.1110000000	comparable results to
0.1110000000	presented based on
0.1110000000	efficient learning of
0.1110000000	image datasets and
0.1110000000	comparable results with
0.1110000000	data drawn from
0.1110000000	generally applicable to
0.1110000000	based approaches to
0.1110000000	neural networks as
0.1110000000	sample complexity and
0.1110000000	error analysis for
0.1110000000	sample complexity for
0.1110000000	variable selection in
0.1110000000	significant increase in
0.1110000000	step size and
0.1110000000	based method for
0.1110000000	image classification with
0.1110000000	robust approach for
0.1110000000	recent years many
0.1110000000	recent years to
0.1110000000	recent years with
0.1110000000	data obtained from
0.1110000000	cnn models for
0.1110000000	data mining and
0.1110000000	unsupervised learning and
0.1110000000	interesting applications in
0.1110000000	higher accuracy and
0.1110000000	error analysis of
0.1110000000	inherent complexity of
0.1110000000	results based on
0.1110000000	major problem in
0.1110000000	real world and
0.1110000000	neural networks over
0.1110000000	challenge lies in
0.1110000000	important roles in
0.1110000000	latent variables with
0.1110000000	latent variables in
0.1110000000	convolutional layers to
0.1110000000	conditional probabilities of
0.1110000000	classification accuracy for
0.1110000000	video frames and
0.1110000000	regularization term in
0.1110000000	object recognition using
0.1110000000	bayesian model for
0.1110000000	unlabeled data for
0.1110000000	accuracy compared to
0.1110000000	neural networks from
0.1110000000	variational model for
0.1110000000	unified view of
0.1110000000	additive models with
0.1110000000	convolutional layers of
0.1110000000	language models in
0.1110000000	estimated based on
0.1110000000	image segmentation to
0.1110000000	average error of
0.1110000000	efficient inference in
0.1110000000	object recognition with
0.1110000000	efficient method for
0.1110000000	error rates of
0.1110000000	evolutionary algorithms on
0.1110000000	singular vectors of
0.1110000000	neural networks on
0.1110000000	neural networks without
0.1110000000	efficient algorithms to
0.1110000000	efficient inference and
0.1110000000	hierarchical model for
0.1110000000	in computational biology
0.1110000000	accuracy comparable to
0.1110000000	noisy observations of
0.1110000000	neural networks using
0.1110000000	higher levels of
0.1110000000	general framework of
0.1110000000	unlabeled data in
0.1110000000	unlabeled data to
0.1110000000	tight bounds on
0.1110000000	probability distribution over
0.1110000000	probability distribution for
0.1110000000	variational approximation to
0.1110000000	unlabeled data and
0.1110000000	comparable accuracy to
0.1110000000	regularization term to
0.1110000000	data provided by
0.1110000000	average accuracy of
0.1110000000	data mining to
0.1110000000	label classification and
0.1110000000	algorithm capable of
0.1110000000	directly applied to
0.1110000000	noisy nature of
0.1110000000	probability distribution on
0.1110000000	combinatorial structure of
0.1110000000	neural networks or
0.1110000000	deep learning on
0.1110000000	classification accuracy in
0.1110000000	calculated based on
0.1110000000	based techniques for
0.1110000000	higher performance than
0.1110000000	based approaches for
0.1110000000	inference method for
0.1110000000	input features and
0.1110000000	convolutional layers in
0.1110000000	efficient approach for
0.1110000000	general framework for
0.1110000000	predictive performance and
0.1110000000	convolutional layers and
0.1110000000	rgb image and
0.1110000000	neural networks via
0.1110000000	network parameters and
0.1110000000	probability distribution of
0.1110000000	object recognition in
0.1110000000	classification accuracy and
0.1110000000	functions defined on
0.1110000000	algorithm applied to
0.1110000000	promising results in
0.1110000000	strong correlation between
0.1110000000	evolutionary algorithms in
0.1110000000	statistical analysis of
0.1110000000	experimental results and
0.1110000000	classification rate of
0.1110000000	distributed representation of
0.1110000000	temporal information and
0.1110000000	evolutionary algorithms with
0.1110000000	dimensionality reduction in
0.1110000000	inference algorithm and
0.1110000000	classification accuracy over
0.1110000000	faster convergence and
0.1110000000	text analysis and
0.1110000000	accuracy rate of
0.1110000000	accuracy achieved by
0.1110000000	recent years because
0.1110000000	predictive performance than
0.1110000000	temporal information from
0.1110000000	predictive performance on
0.1110000000	neural networks by
0.1110000000	neural networks through
0.1110000000	camera motion and
0.1110000000	temporal information in
0.1110000000	predictive performance of
0.1110000000	train state of
0.1110000000	latent space of
0.1110000000	singular values of
0.1110000000	limited number of
0.1110000000	classification accuracy by
0.1110000000	significant improvement of
0.1110000000	evolutionary algorithms to
0.1110000000	based approaches in
0.1110000000	recent years as
0.1110000000	proposed methods on
0.1110000000	learning algorithms with
0.1110000000	learning algorithms using
0.1110000000	learning algorithms on
0.1110000000	automated analysis of
0.1110000000	small fraction of
0.1110000000	feature vector and
0.1110000000	optimization methods for
0.1110000000	simple efficient and
0.1110000000	proposed methods in
0.1110000000	learning applied to
0.1110000000	linear programming and
0.1110000000	online algorithm for
0.1110000000	outperforms prior work
0.1110000000	inference algorithm to
0.1110000000	inference algorithm for
0.1110000000	important aspects of
0.1110000000	unsupervised learning with
0.1110000000	dimensionality reduction of
0.1110000000	dimensionality reduction for
0.1110000000	experimental results from
0.1110000000	accuracy compared with
0.1110000000	wider class of
0.1110000000	experimental results with
0.1110000000	moving objects in
0.1110000000	moving objects from
0.1110000000	simulations based on
0.1110000000	word embeddings in
0.1110000000	efficient approach to
0.1110000000	results achieved by
0.1110000000	domain knowledge into
0.1110000000	promising results for
0.1110000000	promising results on
0.1110000000	promising results and
0.1110000000	image segmentation in
0.1110000000	promising performance of
0.1110000000	promising performance on
0.1110000000	visual recognition and
0.1110000000	deep learning system
0.1110000000	image classification on
0.1110000000	sequence model for
0.1110000000	language models and
0.1110000000	language models to
0.1110000000	image registration and
0.1110000000	natural extension of
0.1110000000	sequence generated by
0.1110000000	high complexity of
0.1110000000	prediction based on
0.1110000000	unsupervised learning on
0.1110000000	word embeddings and
0.1110000000	image enhancement and
0.1110000000	image classification using
0.1110000000	network based on
0.1110000000	single model and
0.1110000000	unsupervised learning for
0.1110000000	models rely on
0.1110000000	models capable of
0.1110000000	model suitable for
0.1110000000	structured prediction with
0.1110000000	model size and
0.1110000000	model selection and
0.1110000000	model selection for
0.1110000000	model selection in
0.1110000000	experimental results using
0.1110000000	experimental results for
0.1110000000	experimental results in
0.1110000000	desirable properties of
0.1110000000	recognition rate of
0.1110000000	categories based on
0.1110000000	sufficient conditions under
0.1110000000	automatic identification of
0.1110000000	previous approaches for
0.1110000000	convergence analysis for
0.1110000000	machine learning in
0.1110000000	as black boxes
0.1110000000	popular tool for
0.1110000000	collaborative filtering with
0.1110000000	approaches tend to
0.1110000000	energy consumption and
0.1110000000	method compared with
0.1110000000	feature extraction in
0.1110000000	feature extraction from
0.1110000000	data representation and
0.1110000000	the evaluation and
0.1110000000	geometric features of
0.1110000000	recent studies show
0.1110000000	machine learning to
0.1110000000	extract features from
0.1110000000	efficient compared to
0.1110000000	lower bound of
0.1110000000	specific types of
0.1110000000	specific set of
0.1110000000	collaborative filtering and
0.1110000000	data produced by
0.1110000000	approach lies in
0.1110000000	data based on
0.1110000000	feature selection using
0.1110000000	demonstrated state of
0.1110000000	decision trees for
0.1110000000	data sets of
0.1110000000	data sets with
0.1110000000	data sets in
0.1110000000	data sets from
0.1110000000	data sets using
0.1110000000	data sets and
0.1110000000	conventional methods for
0.1110000000	recent studies on
0.1110000000	evolutionary algorithm to
0.1110000000	data extracted from
0.1110000000	issues related to
0.1110000000	method compared to
0.1110000000	euclidean distance between
0.1110000000	machine learning as
0.1110000000	data sets to
0.1110000000	fourier transform and
0.1110000000	future research and
0.1110000000	computational cost than
0.1110000000	based analysis of
0.1110000000	recent development of
0.1110000000	artificial intelligence in
0.1110000000	event detection and
0.1110000000	theoretical results with
0.1110000000	speedup compared to
0.1110000000	easily combined with
0.1110000000	fast convergence and
0.1110000000	directly applicable to
0.1110000000	data consists of
0.1110000000	spatial relationships between
0.1110000000	mild conditions on
0.1110000000	transferring knowledge from
0.1110000000	decision trees and
0.1110000000	noise reduction and
0.1110000000	feature maps and
0.1110000000	convergence behavior of
0.1110000000	generalization ability of
0.1110000000	mathematical analysis of
0.1110000000	subspace clustering and
0.1110000000	generalization capability of
0.1110000000	vector representations for
0.1110000000	generalization error and
0.1110000000	generalization bound for
0.1110000000	generalization performance of
0.1110000000	computational cost for
0.1110000000	parallel implementation of
0.1110000000	high resolution and
0.1110000000	proven effective for
0.1110000000	bounding boxes in
0.1110000000	artificial intelligence and
0.1110000000	qualitative analysis of
0.1110000000	memory footprint of
0.1110000000	large database of
0.1110000000	hardware implementation of
0.1110000000	automatically extracted from
0.1110000000	based technique for
0.1110000000	multiple sets of
0.1110000000	theoretical bounds on
0.1110000000	objects based on
0.1110000000	computational cost of
0.1110000000	selected based on
0.1110000000	bounding box of
0.1110000000	adversarial network for
0.1110000000	computational efficiency of
0.1110000000	efficient framework for
0.1110000000	visual odometry and
0.1110000000	filters based on
0.1110000000	theoretical results in
0.1110000000	mathematical model for
0.1110000000	solve problems in
0.1110000000	f1 measure of
0.1110000000	present experiments on
0.1110000000	deep architectures for
0.1110000000	generalization error for
0.1110000000	key issue in
0.1110000000	automated generation of
0.1110000000	reduced set of
0.1110000000	depth analysis of
0.1110000000	efficiently solved by
0.1110000000	points based on
0.1110000000	discriminative features for
0.1110000000	data processing and
0.1110000000	machine learning on
0.1110000000	multiple sources of
0.1110000000	special case of
0.1110000000	lower bound in
0.1110000000	extract information from
0.1110000000	dynamic nature of
0.1110000000	bounding boxes of
0.1110000000	algorithms suffer from
0.1110000000	function defined on
0.1110000000	design implementation and
0.1110000000	design based on
0.1110000000	multiple instances of
0.1110000000	works focus on
0.1110000000	approaches rely on
0.1110000000	broad class of
0.1110000000	fewer number of
0.1110000000	bounding boxes and
0.1110000000	bounding boxes for
0.1110000000	theoretical analysis and
0.1110000000	minimization problem with
0.1110000000	multiple tasks and
0.1110000000	detailed description of
0.1110000000	significant advantages over
0.1110000000	evolutionary algorithm for
0.1110000000	techniques developed for
0.1110000000	aided diagnosis of
0.1110000000	lower bound to
0.1110000000	problem arises in
0.1110000000	computational analysis of
0.1110000000	previous approaches to
0.1110000000	improves performance over
0.1110000000	segmentation results on
0.1110000000	detection performance on
0.1110000000	feature selection via
0.1110000000	dimensional space and
0.1110000000	recent methods for
0.1110000000	mathematical model of
0.1110000000	increasing popularity of
0.1110000000	extensive experiments and
0.1110000000	generalization bounds for
0.1110000000	feature selection for
0.1110000000	lower bound and
0.1110000000	based framework for
0.1110000000	computational cost and
0.1110000000	future research in
0.1110000000	update rules for
0.1110000000	provide bounds on
0.1110000000	adversarial loss and
0.1110000000	theoretic framework for
0.1110000000	energy consumption of
0.1110000000	machine learning but
0.1110000000	combining information from
0.1110000000	age gender and
0.1110000000	accurate estimation of
0.1110000000	feature extraction for
0.1110000000	memory footprint and
0.1110000000	feature maps to
0.1110000000	feature maps in
0.1110000000	feature maps from
0.1110000000	feature maps with
0.1110000000	learning problems and
0.1110000000	approximate inference in
0.1110000000	methods rely on
0.1110000000	linear function of
0.1110000000	joint modeling of
0.1110000000	learning ability of
0.1110000000	feature selection by
0.1110000000	theoretical results for
0.1110000000	improves performance on
0.1110000000	problems ranging from
0.1110000000	iterative algorithm to
0.1110000000	iterative algorithm for
0.1110000000	experimental analysis of
0.1110000000	theoretical guarantees of
0.1110000000	methodology based on
0.1110000000	generalized version of
0.1110000000	varying number of
0.1110000000	varying levels of
0.1110000000	efficient estimation of
0.1110000000	efficient implementation of
0.1110000000	efficient methods for
0.1110000000	efficient algorithm for
0.1110000000	efficient algorithm to
0.1110000000	efficient algorithm with
0.1110000000	vital role in
0.1110000000	extensive experiments using
0.1110000000	pascal voc and
0.1110000000	markov chains and
0.1110000000	theoretical analysis on
0.1110000000	extensive experiments with
0.1110000000	test data and
0.1110000000	theoretical framework for
0.1110000000	deep architectures and
0.1110000000	rigorous analysis of
0.1110000000	dimensional embedding of
0.1110000000	hardware implementations of
0.1110000000	theoretical foundation for
0.1110000000	algorithms rely on
0.1110000000	high probability for
0.1110000000	improves state of
0.1110000000	high risk of
0.1110000000	regression classification and
0.1110000000	language generation and
0.1110000000	extensive experiments for
0.1110000000	high level of
0.1110000000	theoretical results on
0.1110000000	theoretical results and
0.1110000000	theoretical understanding of
0.1110000000	theoretical guarantees and
0.1110000000	machine learning with
0.1110000000	machine learning for
0.1110000000	experimental analysis on
0.1110000000	depth information to
0.1110000000	future research on
0.1110000000	improve state of
0.1110000000	processing step for
0.1110000000	vector representations and
0.1110000000	model free and
0.1110000000	flexible framework for
0.1110000000	models derived from
0.1110000000	model results in
0.1110000000	evaluated based on
0.1110000000	generative model and
0.1110000000	reinforcement learning from
0.1110000000	reinforcement learning and
0.1110000000	open source and
0.1110000000	improved performance on
0.1110000000	automatic discovery of
0.1110000000	local search for
0.1110000000	feature space and
0.1110000000	models trained using
0.1110000000	color texture and
0.1110000000	crafted features and
0.1110000000	feature representation of
0.1110000000	important information about
0.1110000000	natural images with
0.1110000000	proposal generation and
0.1110000000	process based on
0.1110000000	originally proposed for
0.1110000000	improved performance and
0.1110000000	reinforcement learning using
0.1110000000	vector machine and
0.1110000000	pre processing for
0.1110000000	semantic relations between
0.1110000000	feature representation from
0.1110000000	tremendous success in
0.1110000000	graphical representation of
0.1110000000	general algorithm for
0.1110000000	general approach to
0.1110000000	visual quality of
0.1110000000	automatic extraction of
0.1110000000	sentiment analysis and
0.1110000000	sparse coding and
0.1110000000	pre processing and
0.1110000000	model complexity and
0.1110000000	analysis leads to
0.1110000000	logistic regression for
0.1110000000	structure learning and
0.1110000000	kernel methods to
0.1110000000	empirical results for
0.1110000000	internal representation of
0.1110000000	improved version of
0.1110000000	structural information of
0.1110000000	equivalence classes of
0.1110000000	large pool of
0.1110000000	equivalence class of
0.1110000000	riemannian manifold of
0.1110000000	early stage of
0.1110000000	reach state of
0.1110000000	feature space of
0.1110000000	recognition tasks and
0.1110000000	task based on
0.1110000000	computational performance of
0.1110000000	multi class and
0.1110000000	detection segmentation and
0.1110000000	images obtained from
0.1110000000	training data while
0.1110000000	results apply to
0.1110000000	approach relies on
0.1110000000	general class of
0.1110000000	features derived from
0.1110000000	selection method for
0.1110000000	global structure of
0.1110000000	level performance on
0.1110000000	performance compared with
0.1110000000	training data and
0.1110000000	pay attention to
0.1110000000	learn representations of
0.1110000000	potential applications in
0.1110000000	originally designed for
0.1110000000	model capable of
0.1110000000	improved performance of
0.1110000000	features generated by
0.1110000000	trained model to
0.1110000000	training data in
0.1110000000	video data and
0.1110000000	competitive performance of
0.1110000000	reinforcement learning for
0.1110000000	relative reduction in
0.1110000000	detection accuracy of
0.1110000000	incremental learning of
0.1110000000	diverse range of
0.1110000000	formulation leads to
0.1110000000	convolutional networks and
0.1110000000	feature representation for
0.1110000000	performance improvements over
0.1110000000	natural images and
0.1110000000	perform inference in
0.1110000000	computational properties of
0.1110000000	traditional bag of
0.1110000000	visual appearance of
0.1110000000	path planning for
0.1110000000	lower bounds of
0.1110000000	competitive results in
0.1110000000	global optimization of
0.1110000000	important issue in
0.1110000000	important properties of
0.1110000000	theoretical findings and
0.1110000000	large variations in
0.1110000000	produces state of
0.1110000000	hyperparameter optimization and
0.1110000000	predictions based on
0.1110000000	classes based on
0.1110000000	training data or
0.1110000000	large scale of
0.1110000000	multiple types of
0.1110000000	optimal strategy for
0.1110000000	neural model for
0.1110000000	approximation based on
0.1110000000	competitive performance and
0.1110000000	recognition systems for
0.1110000000	automatic selection of
0.1110000000	training data to
0.1110000000	potential applications of
0.1110000000	reinforcement learning via
0.1110000000	generative model with
0.1110000000	competitive performance in
0.1110000000	large publicly available
0.1110000000	space based on
0.1110000000	feature space for
0.1110000000	multi agent system
0.1110000000	improvement compared to
0.1110000000	convolutional networks with
0.1110000000	vectors extracted from
0.1110000000	performance improvements in
0.1110000000	models trained by
0.1110000000	image quality and
0.1110000000	patches extracted from
0.1110000000	approximation scheme for
0.1110000000	problems based on
0.1110000000	convolutional networks for
0.1110000000	convolutional networks to
0.1110000000	main contribution of
0.1110000000	solely based on
0.1110000000	features related to
0.1110000000	synthetic dataset and
0.1110000000	similar results for
0.1110000000	recommendation systems and
0.1110000000	basic properties of
0.1110000000	basic principles of
0.1110000000	risk minimization with
0.1110000000	runtime analysis of
0.1110000000	critical component of
0.1110000000	residual networks for
0.1110000000	risk bounds for
0.1110000000	large scale and
0.1110000000	problem based on
0.1110000000	feature space in
0.1110000000	square error of
0.1110000000	important problems in
0.1110000000	important class of
0.1110000000	important applications in
0.1110000000	improved performance in
0.1110000000	fine grained and
0.1110000000	generative model for
0.1110000000	significantly improves over
0.1110000000	convex optimization and
0.1110000000	parameters compared to
0.1110000000	technique inspired by
0.1110000000	existing techniques for
0.1110000000	pre processing of
0.1110000000	competitive performance with
0.1110000000	broader class of
0.1110000000	techniques based on
0.1110000000	unknown number of
0.1110000000	test based on
0.1110000000	research problem in
0.1110000000	highly effective in
0.1110000000	modeling approach to
0.1110000000	test set of
0.1110000000	results presented in
0.1110000000	results reported in
0.1110000000	for video based
0.1110000000	test set for
0.1110000000	research focuses on
0.1110000000	manifold structure of
0.1110000000	competitive results for
0.1110000000	image search and
0.1110000000	generate images of
0.1110000000	unsupervised approach for
0.1110000000	empirical study of
0.1110000000	performance improvements on
0.1110000000	comparative analysis of
0.1110000000	theoretical basis for
0.1110000000	image captioning and
0.1110000000	performance improvement over
0.1110000000	performance improvement in
0.1110000000	performance improvement of
0.1110000000	network consists of
0.1110000000	competitive performance on
0.1110000000	competitive performance to
0.1110000000	competitive results with
0.1110000000	gpu implementation of
0.1110000000	formal analysis of
0.1110000000	model outperforms other
0.1110000000	regression based on
0.1110000000	show encouraging results
0.1110000000	generative model of
0.1110000000	models tend to
0.1110000000	algorithm converges to
0.1110000000	major challenges in
0.1110000000	sparse coding with
0.1110000000	traditional methods of
0.1110000000	by transferring knowledge
0.1110000000	method relies on
0.1110000000	methods perform well
0.1110000000	recently shown to
0.1110000000	impressive performance on
0.1110000000	recently proposed in
0.1110000000	resource allocation and
0.1110000000	increasing attention from
0.1110000000	architecture consisting of
0.1110000000	fast algorithm for
0.1110000000	inference algorithms for
0.1110000000	task learning and
0.1110000000	global convergence of
0.1110000000	approach compared to
0.1110000000	key component of
0.1110000000	mathematical theory of
0.1110000000	optimal policies for
0.1110000000	optimal policies in
0.1110000000	key contribution of
0.1110000000	density estimation and
0.1110000000	semantic representation of
0.1110000000	weighted combination of
0.1110000000	weighted average of
0.1110000000	total variation and
0.1110000000	topological properties of
0.1110000000	deep networks and
0.1110000000	adversarial training for
0.1110000000	optimization problem with
0.1110000000	empirical performance of
0.1110000000	original data and
0.1110000000	dataset consisting of
0.1110000000	computational model of
0.1110000000	computational power of
0.1110000000	task compared to
0.1110000000	deep networks on
0.1110000000	experiment results on
0.1110000000	linear regression and
0.1110000000	probabilistic inference and
0.1110000000	generated based on
0.1110000000	images captured from
0.1110000000	images captured in
0.1110000000	computational power and
0.1110000000	large corpus of
0.1110000000	images generated by
0.1110000000	multi scale and
0.1110000000	tasks ranging from
0.1110000000	approach inspired by
0.1110000000	features based on
0.1110000000	large fraction of
0.1110000000	bayesian networks in
0.1110000000	key problem in
0.1110000000	rademacher complexity of
0.1110000000	approach consists in
0.1110000000	fast computation of
0.1110000000	tasks compared to
0.1110000000	general classes of
0.1110000000	tasks based on
0.1110000000	large quantity of
0.1110000000	greedy algorithms for
0.1110000000	tasks related to
0.1110000000	weighted sum of
0.1110000000	existing approaches to
0.1110000000	dynamic programming and
0.1110000000	existing approaches on
0.1110000000	computationally efficient and
0.1110000000	naturally leads to
0.1110000000	adversarial training of
0.1110000000	fusion based on
0.1110000000	anomaly detection and
0.1110000000	anomaly detection in
0.1110000000	optimization problem for
0.1110000000	powerful tools for
0.1110000000	temporal structure of
0.1110000000	information extracted from
0.1110000000	provide insight into
0.1110000000	component analysis for
0.1110000000	increasing attention in
0.1110000000	optimal number of
0.1110000000	key features of
0.1110000000	conduct experiments to
0.1110000000	compositional structure of
0.1110000000	partition function of
0.1110000000	heavily rely on
0.1110000000	optimal rates for
0.1110000000	representations based on
0.1110000000	optimal solutions and
0.1110000000	single image and
0.1110000000	variance reduction for
0.1110000000	space spanned by
0.1110000000	large sets of
0.1110000000	features directly from
0.1110000000	diverse set of
0.1110000000	recently proposed for
0.1110000000	highly depends on
0.1110000000	key advantage of
0.1110000000	images captured by
0.1110000000	selection algorithm for
0.1110000000	considerable attention in
0.1110000000	adversarial networks for
0.1110000000	optimal solutions for
0.1110000000	considerably faster than
0.1110000000	large size of
0.1110000000	bayesian networks and
0.1110000000	random variables in
0.1110000000	cross validation to
0.1110000000	results comparable to
0.1110000000	finally based on
0.1110000000	random variables and
0.1110000000	shows state of
0.1110000000	interesting properties of
0.1110000000	approach outperforms other
0.1110000000	ridge regression and
0.1110000000	task learning in
0.1110000000	automatic method for
0.1110000000	constructed based on
0.1110000000	valuable tool for
0.1110000000	computational model for
0.1110000000	absolute error of
0.1110000000	prediction performance on
0.1110000000	large set of
0.1110000000	random subset of
0.1110000000	density estimation for
0.1110000000	optimization problem over
0.1110000000	linear combination of
0.1110000000	sufficient number of
0.1110000000	existing algorithms for
0.1110000000	feed forward and
0.1110000000	methods applied to
0.1110000000	deep network for
0.1110000000	dynamical systems and
0.1110000000	recently proposed to
0.1110000000	motion capture system
0.1110000000	random field and
0.1110000000	random projection and
0.1110000000	current approaches to
0.1110000000	increasingly popular in
0.1110000000	classification methods in
0.1110000000	effective method for
0.1110000000	hierarchical clustering of
0.1110000000	error compared to
0.1110000000	unsupervised method for
0.1110000000	adversarial networks to
0.1110000000	random fields and
0.1110000000	impressive performance in
0.1110000000	information retrieval and
0.1110000000	bayesian networks from
0.1110000000	theoretic analysis of
0.1110000000	previous results on
0.1110000000	information retrieval system
0.1110000000	feature learning and
0.1110000000	local minimum of
0.1110000000	linear relationship between
0.1110000000	feature learning with
0.1110000000	feature learning from
0.1110000000	existing approaches for
0.1110000000	joint detection and
0.1110000000	strategy based on
0.1110000000	optimization problem by
0.1110000000	optimization problem using
0.1110000000	color images and
0.1110000000	benchmark problems and
0.1110000000	automated methods for
0.1110000000	theoretical aspects of
0.1110000000	existing works on
0.1110000000	fine tuned for
0.1110000000	existing approaches either
0.1110000000	existing approaches and
0.1110000000	the fourier transform
0.1110000000	existing models for
0.1110000000	existing algorithms in
0.1110000000	prior information about
0.1110000000	performance analysis of
0.1110000000	results compared to
0.1110000000	results compared with
0.1110000000	deep networks for
0.1110000000	less than 1
0.1110000000	gibbs sampling and
0.1110000000	image resolution and
0.1110000000	discrete set of
0.1110000000	image regions and
0.1110000000	traditional methods for
0.1110000000	network trained with
0.1110000000	emerging field of
0.1110000000	prior information on
0.1110000000	network training and
0.1110000000	empirical success of
0.1110000000	practical performance of
0.1110000000	performance evaluation of
0.1110000000	prediction performance of
0.1110000000	activation functions and
0.1110000000	major drawback of
0.1110000000	multitask learning with
0.1110000000	algorithm inspired by
0.1110000000	wide applications in
0.1110000000	experimental studies on
0.1110000000	bayesian optimization and
0.1110000000	advantages compared to
0.1110000000	previous works on
0.1110000000	infinite number of
0.1110000000	art results and
0.1110000000	art results on
0.1110000000	training samples and
0.1110000000	receptive fields of
0.1110000000	provably converges to
0.1110000000	probabilistic reasoning in
0.1110000000	regression models and
0.1110000000	upper bounds for
0.1110000000	automatic analysis of
0.1110000000	learning representations of
0.1110000000	graphical models in
0.1110000000	graphical models with
0.1110000000	exponential number of
0.1110000000	automatic approach for
0.1110000000	classification task on
0.1110000000	low level of
0.1110000000	training examples to
0.1110000000	designed based on
0.1110000000	direction method of
0.1110000000	state space and
0.1110000000	latest advances in
0.1110000000	complex systems and
0.1110000000	statistical model for
0.1110000000	features learned by
0.1110000000	effective solution to
0.1110000000	partial derivatives of
0.1110000000	bandit problem with
0.1110000000	substantial progress in
0.1110000000	reconstruction error and
0.1110000000	estimation error and
0.1110000000	data sampled from
0.1110000000	classification performance in
0.1110000000	smaller number of
0.1110000000	arbitrary number of
0.1110000000	cognitive science and
0.1110000000	spatial information in
0.1110000000	recent advances on
0.1110000000	previous methods in
0.1110000000	classification performance on
0.1110000000	classification problems with
0.1110000000	search engines and
0.1110000000	data driven way
0.1110000000	log likelihood and
0.1110000000	regression model in
0.1110000000	neural network using
0.1110000000	measure based on
0.1110000000	demonstrate state of
0.1110000000	recent results in
0.1110000000	recent advances of
0.1110000000	data efficiency and
0.1110000000	expectation maximization and
0.1110000000	complexity results for
0.1110000000	significant speed up
0.1110000000	key properties of
0.1110000000	easily adapted to
0.1110000000	reward function and
0.1110000000	input image to
0.1110000000	exact computation of
0.1110000000	improve performance over
0.1110000000	derived based on
0.1110000000	evaluation results show
0.1110000000	improve performance in
0.1110000000	joint distribution over
0.1110000000	key challenges in
0.1110000000	bayesian optimization for
0.1110000000	heuristic algorithm for
0.1110000000	dependency parsing and
0.1110000000	paper attempts to
0.1110000000	cnn model for
0.1110000000	probabilistic models of
0.1110000000	probabilistic models with
0.1110000000	data driven and
0.1110000000	applications related to
0.1110000000	model consisting of
0.1110000000	facial expression and
0.1110000000	log likelihood of
0.1110000000	regression problems with
0.1110000000	learning rate of
0.1110000000	benchmark datasets with
0.1110000000	query answering over
0.1110000000	algebraic structure of
0.1110000000	graphical models to
0.1110000000	evaluation results of
0.1110000000	large volume of
0.1110000000	inverse problems in
0.1110000000	short term and
0.1110000000	numerical results on
0.1110000000	features obtained from
0.1110000000	neural network with
0.1110000000	based architecture for
0.1110000000	spectral methods for
0.1110000000	training set of
0.1110000000	case studies of
0.1110000000	convolutional network to
0.1110000000	method referred to
0.1110000000	extracting information from
0.1110000000	recent results on
0.1110000000	samples drawn from
0.1110000000	classification performance with
0.1110000000	benchmark datasets and
0.1110000000	receptive fields and
0.1110000000	state space of
0.1110000000	dimensional representations of
0.1110000000	easily applied to
0.1110000000	foreground objects in
0.1110000000	improve performance on
0.1110000000	neural network as
0.1110000000	neural network s
0.1110000000	key challenges of
0.1110000000	average number of
0.1110000000	classification performance of
0.1110000000	neural network on
0.1110000000	modified version of
0.1110000000	probabilistic models for
0.1110000000	state space to
0.1110000000	mr images from
0.1110000000	future development of
0.1110000000	learning problem and
0.1110000000	strongly depends on
0.1110000000	critical role in
0.1110000000	objective function for
0.1110000000	convergence properties and
0.1110000000	intrinsic properties of
0.1110000000	gradient method for
0.1110000000	approach presented in
0.1110000000	effort required to
0.1110000000	mathematical framework to
0.1110000000	convolutional network for
0.1110000000	classification problems in
0.1110000000	representation power of
0.1110000000	images collected from
0.1110000000	evaluation results on
0.1110000000	algorithms designed for
0.1110000000	convergence properties of
0.1110000000	neural network system
0.1110000000	kernel matrix and
0.1110000000	classification performance and
0.1110000000	action recognition using
0.1110000000	average performance of
0.1110000000	learning techniques and
0.1110000000	classification task with
0.1110000000	prior state of
0.1110000000	numerical experiments and
0.1110000000	training sets and
0.1110000000	comparative study on
0.1110000000	formal representation of
0.1110000000	probabilistic models and
0.1110000000	key aspect of
0.1110000000	training samples to
0.1110000000	reconstruction error of
0.1110000000	latent representation of
0.1110000000	experiments based on
0.1110000000	previous methods on
0.1110000000	approaches based on
0.1110000000	hot topic in
0.1110000000	word representations and
0.1110000000	small sets of
0.1110000000	report state of
0.1110000000	schemes based on
0.1110000000	input image into
0.1110000000	bandit problem in
0.1110000000	effective algorithm for
0.1110000000	mathematical models of
0.1110000000	features learned from
0.1110000000	growing number of
0.1110000000	training samples in
0.1110000000	mathematical framework for
0.1110000000	tool based on
0.1110000000	missing values and
0.1110000000	low number of
0.1110000000	classification problems and
0.1110000000	energy efficiency of
0.1110000000	feature set for
0.1110000000	classification task using
0.1110000000	generic approach to
0.1110000000	benchmark datasets for
0.1110000000	benchmark datasets in
0.1110000000	intuitive interpretation of
0.1110000000	small number of
0.1110000000	feature detection and
0.1110000000	learning techniques for
0.1110000000	learning techniques in
0.1110000000	learning problem as
0.1110000000	simple fast and
0.1110000000	deeper understanding of
0.1110000000	joint optimization of
0.1110000000	feature set and
0.1110000000	recovery guarantees for
0.1110000000	descent algorithm for
0.1110000000	alternating minimization for
0.1110000000	structure present in
0.1110000000	memory networks for
0.1110000000	approximate solutions to
0.1110000000	important features of
0.1110000000	dictionary learning for
0.1110000000	planning based on
0.1110000000	inference problem in
0.1110000000	heuristics based on
0.1110000000	regression model with
0.1110000000	point set of
0.1110000000	posterior distributions of
0.1110000000	spatial information and
0.1110000000	prediction error of
0.1110000000	posterior distributions over
0.1110000000	posterior distribution of
0.1110000000	posterior distribution over
0.1110000000	posterior distribution and
0.1110000000	algorithmic approach to
0.1110000000	algorithmic framework for
0.1110000000	mr images of
0.1110000000	previous research on
0.1110000000	previous works in
0.1110000000	widely studied in
0.1110000000	efficient training of
0.1110000000	accurate prediction of
0.1110000000	numerous applications in
0.1110000000	modeling based on
0.1110000000	domains ranging from
0.1110000000	conducted experiments on
0.1110000000	policy based on
0.1110000000	gradient method with
0.1110000000	gradient method and
0.1110000000	gradient methods and
0.1110000000	upper bounds of
0.1110000000	combines ideas from
0.1110000000	spatial information of
0.1110000000	accurate reconstruction of
0.1110000000	report results on
0.1110000000	report results of
0.1110000000	exponential growth of
0.1110000000	objective function of
0.1110000000	comparative study of
0.1110000000	dimension reduction and
0.1110000000	improve performance of
0.1110000000	stochastic model of
0.1110000000	wavelet transform and
0.1110000000	network learns to
0.1110000000	probabilities based on
0.1110000000	practical applications of
0.1110000000	objective function value
0.1110000000	question answering and
0.1110000000	question answering with
0.1110000000	constraints imposed by
0.1110000000	bandit problem and
0.1110000000	model parameters and
0.1110000000	energy function and
0.1110000000	sampling algorithm for
0.1110000000	algorithm results in
0.1110000000	highly competitive with
0.1110000000	defined based on
0.1110000000	present algorithms for
0.1110000000	challenging problems in
0.1110000000	objective function to
0.1110000000	objective function and
0.1110000000	model parameters in
0.1110000000	problems related to
0.1110000000	than of
0.1110000000	two challenges
0.1110000000	inconsistency between
0.1110000000	for dense
0.1110000000	each segment
0.1110000000	for decoding
0.1110000000	the experimenter
0.1110000000	the sparsest
0.1110000000	over 10
0.1110000000	of empirical
0.1110000000	co and
0.1110000000	appropriateness of
0.1110000000	by choosing
0.1110000000	by and
0.1110000000	by carefully
0.1110000000	by improving
0.1110000000	further study
0.1110000000	during execution
0.1110000000	and cross
0.1110000000	thereby making
0.1110000000	a convolution
0.1110000000	people and
0.1110000000	a streaming
0.1100000000	trained end to end using
0.1100000000	trained end to end to
0.1100000000	a deep neural network to
0.1100000000	end to end framework for
0.1100000000	a new video
0.1100000000	the new dataset
0.1100000000	posedness of
0.1100000000	increased interest
0.1100000000	other disciplines
0.1100000000	this evaluation
0.1100000000	new benchmark
0.1100000000	right hand
0.1100000000	rely upon
0.1100000000	different senses
0.1100000000	different domain
0.1100000000	as decision
0.1100000000	3d detection
0.1100000000	wishes to
0.1100000000	as performance
0.1100000000	2016 challenge
0.1100000000	on total
0.1100000000	factors like
0.1100000000	autoencoders for
0.1100000000	for samples
0.1100000000	each event
0.1100000000	released under
0.1100000000	condition of
0.1100000000	for goal
0.1100000000	permutations of
0.1100000000	on images
0.1100000000	on web
0.1100000000	for images
0.1100000000	for markov
0.1100000000	trajectories and
0.1100000000	svm with
0.1100000000	deterioration in
0.1100000000	plans for
0.1100000000	segmented into
0.1100000000	experts and
0.1100000000	process to
0.1100000000	the occluded
0.1100000000	the penalized
0.1100000000	the old
0.1100000000	shorter time
0.1100000000	sections of
0.1100000000	benign or
0.1100000000	insufficiency of
0.1100000000	about half
0.1100000000	theories and
0.1100000000	brought by
0.1100000000	evaluation using
0.1100000000	studied by
0.1100000000	very helpful
0.1100000000	of setting
0.1100000000	connected with
0.1100000000	more elaborate
0.1100000000	of co
0.1100000000	viewpoints and
0.1100000000	of imbalanced
0.1100000000	achieves nearly
0.1100000000	method allows
0.1100000000	basics of
0.1100000000	to temporal
0.1100000000	generally not
0.1100000000	originality of
0.1100000000	acquired in
0.1100000000	mean embedding
0.1100000000	vectors for
0.1100000000	target side
0.1100000000	between word
0.1100000000	grid like
0.1100000000	proliferation of
0.1100000000	various noise
0.1100000000	further refined
0.1100000000	non conjugate
0.1100000000	with boosting
0.1100000000	part model
0.1100000000	and alignment
0.1100000000	with language
0.1100000000	works mainly
0.1100000000	in narrative
0.1100000000	fail in
0.1100000000	a unit
0.1100000000	a generated
0.1100000000	a markovian
0.1100000000	in twitter
0.1100000000	in focus
0.1100000000	per character
0.1100000000	texts from
0.1100000000	a row
0.1100000000	detection for
0.1100000000	powers of
0.1090000000	results on synthetic and
0.1090000000	set of experiments to
0.1090000000	a neural network with
0.1090000000	the problem of cross
0.1090000000	for person re id
0.1090000000	the number of attributes
0.1090000000	efficiency and effectiveness of
0.1090000000	3d reconstruction and
0.1090000000	general enough to
0.1090000000	a layer of
0.1090000000	a dataset and
0.1090000000	results clearly show
0.1090000000	in first order
0.1090000000	the one step
0.1090000000	the art for
0.1090000000	used models
0.1090000000	still largely
0.1090000000	this online
0.1090000000	one task
0.1090000000	then converted
0.1090000000	less explored
0.1090000000	best prediction
0.1090000000	among features
0.1090000000	different countries
0.1090000000	as social
0.1090000000	than 70
0.1090000000	as probabilistic
0.1090000000	two seemingly
0.1090000000	as sparse
0.1090000000	two classifiers
0.1090000000	as dynamic
0.1090000000	as higher
0.1090000000	k max
0.1090000000	second case
0.1090000000	for multiclass
0.1090000000	from document
0.1090000000	each piece
0.1090000000	each row
0.1090000000	each window
0.1090000000	for driver
0.1090000000	results indicated
0.1090000000	on target
0.1090000000	for consensus
0.1090000000	on action
0.1090000000	each visual
0.1090000000	sharing across
0.1090000000	for cnn
0.1090000000	for spatiotemporal
0.1090000000	for forecasting
0.1090000000	for latent
0.1090000000	each graph
0.1090000000	the codes
0.1090000000	the marginals
0.1090000000	the iso
0.1090000000	the perturbed
0.1090000000	the doubly
0.1090000000	the captured
0.1090000000	the weakest
0.1090000000	the angle
0.1090000000	the chances
0.1090000000	the fragment
0.1090000000	the gibbs
0.1090000000	the 0
0.1090000000	the pool
0.1090000000	the allocation
0.1090000000	the interdependency
0.1090000000	the iteration
0.1090000000	the double
0.1090000000	the marker
0.1090000000	not adequately
0.1090000000	the terminology
0.1090000000	the agreement
0.1090000000	the covariates
0.1090000000	the aligned
0.1090000000	the informative
0.1090000000	the possibilistic
0.1090000000	the mind
0.1090000000	the recurrence
0.1090000000	the e
0.1090000000	the phoneme
0.1090000000	the formalization
0.1090000000	the dct
0.1090000000	the department
0.1090000000	such tools
0.1090000000	using models
0.1090000000	such language
0.1090000000	such classifiers
0.1090000000	of hyperparameters
0.1090000000	of initialization
0.1090000000	of redundancy
0.1090000000	of pseudo
0.1090000000	of segments
0.1090000000	of records
0.1090000000	of processing
0.1090000000	of contrast
0.1090000000	of weight
0.1090000000	of scaling
0.1090000000	of virtual
0.1090000000	of genomic
0.1090000000	of worlds
0.1090000000	of sensitivity
0.1090000000	of neutral
0.1090000000	of playing
0.1090000000	of backpropagation
0.1090000000	of failure
0.1090000000	of multispectral
0.1090000000	of filters
0.1090000000	of peak
0.1090000000	given context
0.1090000000	of embedding
0.1090000000	of columns
0.1090000000	of node
0.1090000000	of strategic
0.1090000000	of desired
0.1090000000	of coronary
0.1090000000	of thumb
0.1090000000	of possibility
0.1090000000	of inputs
0.1090000000	via information
0.1090000000	to cnns
0.1090000000	to ascertain
0.1090000000	to approaches
0.1090000000	thus giving
0.1090000000	compact yet
0.1090000000	thus avoiding
0.1090000000	while ignoring
0.1090000000	to analysis
0.1090000000	reasons about
0.1090000000	an introductory
0.1090000000	these terms
0.1090000000	by matrix
0.1090000000	100 years
0.1090000000	by injecting
0.1090000000	part detectors
0.1090000000	previously described
0.1090000000	and boundaries
0.1090000000	and patterns
0.1090000000	and delivery
0.1090000000	and sentiments
0.1090000000	and sequence
0.1090000000	across modalities
0.1090000000	across subjects
0.1090000000	or 1
0.1090000000	in distribution
0.1090000000	5 times
0.1090000000	5 10
0.1090000000	a cloud
0.1090000000	a noise
0.1090000000	in community
0.1090000000	in length
0.1090000000	in handwritten
0.1090000000	a line
0.1090000000	a false
0.1090000000	in plane
0.1090000000	a client
0.1090000000	a token
0.1090000000	in 1
0.1090000000	a location
0.1080000000	the case of large
0.1080000000	the proposed methods on
0.1080000000	against ground truth
0.1080000000	an algorithm to
0.1080000000	a non monotonic
0.1080000000	new dataset and
0.1080000000	the same results
0.1080000000	these algorithms and
0.1080000000	able to reconstruct
0.1080000000	this method by
0.1080000000	used for image
0.1080000000	computer vision in
0.1080000000	and at most
0.1080000000	a particular problem
0.1080000000	with first order
0.1080000000	then used as
0.1080000000	s notion of
0.1080000000	the depth and
0.1080000000	this algorithm to
0.1080000000	a framework and
0.1080000000	more than 1
0.1080000000	the two dimensional
0.1080000000	for sampling from
0.1080000000	this problem to
0.1080000000	to find optimal
0.1080000000	still maintaining
0.1080000000	that point
0.1080000000	both hands
0.1080000000	this communication
0.1080000000	dependent upon
0.1080000000	novel algorithms
0.1080000000	s inequality
0.1080000000	as constraint
0.1080000000	s conjecture
0.1080000000	as context
0.1080000000	than 1000
0.1080000000	as gradient
0.1080000000	much greater
0.1080000000	before applying
0.1080000000	six benchmark
0.1080000000	for molecular
0.1080000000	feeling of
0.1080000000	on voc2007
0.1080000000	for code
0.1080000000	from unannotated
0.1080000000	above challenges
0.1080000000	for mcmc
0.1080000000	the record
0.1080000000	theory behind
0.1080000000	the tests
0.1080000000	not covered
0.1080000000	not exceed
0.1080000000	the supporting
0.1080000000	the traveling
0.1080000000	offs between
0.1080000000	the criterion
0.1080000000	the format
0.1080000000	the job
0.1080000000	the dawid
0.1080000000	the conjecture
0.1080000000	the affirmative
0.1080000000	the ibm
0.1080000000	the nonparametric
0.1080000000	the device
0.1080000000	the imaging
0.1080000000	some datasets
0.1080000000	system state
0.1080000000	resurgence of
0.1080000000	of 2
0.1080000000	student s
0.1080000000	of trust
0.1080000000	after introducing
0.1080000000	h 1
0.1080000000	of explanation
0.1080000000	full supervision
0.1080000000	full reference
0.1080000000	full gradient
0.1080000000	of ordered
0.1080000000	of audio
0.1080000000	of undirected
0.1080000000	of creativity
0.1080000000	of dense
0.1080000000	via adversarial
0.1080000000	of measures
0.1080000000	of echo
0.1080000000	of proofs
0.1080000000	of commonsense
0.1080000000	of holistic
0.1080000000	via crowdsourcing
0.1080000000	more features
0.1080000000	neuromorphic system
0.1080000000	to reconcile
0.1080000000	to weigh
0.1080000000	self reported
0.1080000000	to attribute
0.1080000000	possible for
0.1080000000	an appendix
0.1080000000	to relieve
0.1080000000	an analyst
0.1080000000	to defend
0.1080000000	these logics
0.1080000000	these quantities
0.1080000000	these weights
0.1080000000	t distribution
0.1080000000	good local
0.1080000000	good clustering
0.1080000000	by text
0.1080000000	tried to
0.1080000000	by minimising
0.1080000000	by interleaving
0.1080000000	further refine
0.1080000000	look into
0.1080000000	and aggregation
0.1080000000	next steps
0.1080000000	and clark
0.1080000000	during decoding
0.1080000000	and independence
0.1080000000	and observation
0.1080000000	and factor
0.1080000000	and map
0.1080000000	and collaborative
0.1080000000	with cnn
0.1080000000	sequential labeling
0.1080000000	and m
0.1080000000	and causality
0.1080000000	and because
0.1080000000	and self
0.1080000000	and neck
0.1080000000	and surface
0.1080000000	progress made
0.1080000000	logarithmically with
0.1080000000	reformulated as
0.1080000000	now widely
0.1080000000	in spiking
0.1080000000	under severe
0.1080000000	a dilated
0.1080000000	a quality
0.1080000000	leave one
0.1080000000	in probability
0.1080000000	a dozen
0.1080000000	a min
0.1080000000	a right
0.1080000000	a boundary
0.1080000000	or data
0.1080000000	a sizable
0.1080000000	in gpu
0.1080000000	in rl
0.1080000000	in text
0.1080000000	a link
0.1080000000	d sensor
0.1080000000	a fourier
0.1080000000	r p
0.1070000000	time dependent plasticity
0.1070000000	in classification and
0.1070000000	the method allows
0.1070000000	every frame
0.1070000000	different angles
0.1070000000	for parsing
0.1070000000	the magic
0.1070000000	the baum
0.1070000000	the agm
0.1070000000	detecting changes
0.1070000000	the originality
0.1070000000	the fovea
0.1070000000	the iwslt
0.1070000000	thorough experimental
0.1070000000	particularly interesting
0.1070000000	very short
0.1070000000	only limited
0.1070000000	these goals
0.1070000000	by imitating
0.1070000000	a many
0.1070000000	a scheme
0.1060000000	the development of new
0.1060000000	used as part of
0.1060000000	the latest developments
0.1060000000	of weights in
0.1060000000	near optimal regret
0.1060000000	any black box
0.1060000000	the restricted isometry
0.1060000000	x ray image
0.1060000000	particularly suitable for
0.1060000000	least squares loss
0.1060000000	in dempster shafer
0.1060000000	very similar to
0.1060000000	bias towards
0.1060000000	s thesis
0.1060000000	3d mri
0.1060000000	two innovations
0.1060000000	k shot
0.1060000000	many people
0.1060000000	system s
0.1060000000	of most
0.1060000000	but at
0.1060000000	of parameter
0.1060000000	self optimizing
0.1060000000	to ameliorate
0.1060000000	excels in
0.1060000000	across various
0.1060000000	a pr2
0.1050000000	the proposed approach in
0.1050000000	pascal voc 2012 and
0.1050000000	of state of
0.1050000000	2016 shared task
0.1050000000	the information about
0.1050000000	a given dataset
0.1050000000	mean field approximations
0.1050000000	to explore and
0.1050000000	and number of
0.1050000000	co occurrence information
0.1050000000	and control of
0.1050000000	of data as
0.1050000000	the architecture and
0.1050000000	sub regions
0.1050000000	conceptualization of
0.1050000000	basins of
0.1050000000	this setup
0.1050000000	new evidence
0.1050000000	mediated by
0.1050000000	repertoire of
0.1050000000	manages to
0.1050000000	intend to
0.1050000000	comparisons among
0.1050000000	establishment of
0.1050000000	from s
0.1050000000	transportation system
0.1050000000	passing through
0.1050000000	posterior mean
0.1050000000	verify if
0.1050000000	presentations and
0.1050000000	verified through
0.1050000000	formalisation of
0.1050000000	of extracting
0.1050000000	hold even
0.1050000000	challenged by
0.1050000000	determining if
0.1050000000	imbalance between
0.1050000000	to invert
0.1050000000	conceived as
0.1050000000	boosting like
0.1050000000	principled way
0.1050000000	recurrent q
0.1050000000	centered at
0.1050000000	clustered into
0.1050000000	weight changes
0.1050000000	analogues of
0.1040000000	of alzheimer s disease ad
0.1040000000	in computer vision and
0.1040000000	of action recognition
0.1040000000	and matrix factorization
0.1040000000	of association rules
0.1040000000	the upper confidence
0.1040000000	to develop methods
0.1040000000	of prior knowledge
0.1040000000	of tensor decomposition
0.1040000000	to generate realistic
0.1040000000	of text documents
0.1040000000	of supervised learning
0.1040000000	of computed tomography
0.1040000000	of bio inspired
0.1040000000	of text based
0.1040000000	of decision making
0.1040000000	of recently proposed
0.1040000000	of optical flow
0.1040000000	very high accuracy
0.1040000000	very high dimensional
0.1040000000	more computationally efficient
0.1040000000	more efficient algorithms
0.1040000000	more general setting
0.1040000000	the standard approach
0.1040000000	of linear classifiers
0.1040000000	of linear equations
0.1040000000	of text mining
0.1040000000	of hidden markov
0.1040000000	to accurately classify
0.1040000000	to accurately detect
0.1040000000	to reinforcement learning
0.1040000000	to extract knowledge
0.1040000000	to extract features
0.1040000000	while achieving similar
0.1040000000	and high resolution
0.1040000000	a hierarchical model
0.1040000000	and effective approach
0.1040000000	via low rank
0.1040000000	a fundamental issue
0.1040000000	to local minima
0.1040000000	to local optima
0.1040000000	a critical problem
0.1040000000	and markov chain
0.1040000000	and experimental results
0.1040000000	to predict future
0.1040000000	to massive data
0.1040000000	of constraint programming
0.1040000000	to generate synthetic
0.1040000000	to generate data
0.1040000000	to generate samples
0.1040000000	to generate images
0.1040000000	to identify patterns
0.1040000000	to previously proposed
0.1040000000	the true underlying
0.1040000000	non parametric approach
0.1040000000	the recent deep
0.1040000000	the approach presented
0.1040000000	with total variation
0.1040000000	and quantitative results
0.1040000000	and expectation maximization
0.1040000000	an embedding based
0.1040000000	and feature extraction
0.1040000000	an improved performance
0.1040000000	of recent advances
0.1040000000	the recent works
0.1040000000	value iteration algorithm
0.1040000000	to prevent overfitting
0.1040000000	to solve complex
0.1040000000	and model parameters
0.1040000000	and model based
0.1040000000	and black box
0.1040000000	and experimental data
0.1040000000	not directly applicable
0.1040000000	with fully connected
0.1040000000	and significantly outperforms
0.1040000000	of fine grained
0.1040000000	or machine learning
0.1040000000	a systematic analysis
0.1040000000	a systematic study
0.1040000000	non convex objectives
0.1040000000	a critical task
0.1040000000	a faster convergence
0.1040000000	a baseline model
0.1040000000	a larger dataset
0.1040000000	in large scale
0.1040000000	a hierarchical clustering
0.1040000000	more general case
0.1040000000	of outlier detection
0.1040000000	a hierarchical bayesian
0.1040000000	a semantic parser
0.1040000000	and social networks
0.1040000000	the fine grained
0.1040000000	of constraint propagation
0.1040000000	and significantly improves
0.1040000000	a critical component
0.1040000000	to extract information
0.1040000000	the recent developments
0.1040000000	and achieves comparable
0.1040000000	a maximum margin
0.1040000000	non parametric bayesian
0.1040000000	non parametric models
0.1040000000	the potential benefits
0.1040000000	new method called
0.1040000000	a critical issue
0.1040000000	of linear programming
0.1040000000	of unsupervised learning
0.1040000000	a tree based
0.1040000000	a rigorous theoretical
0.1040000000	the computational bottleneck
0.1040000000	the similarity measure
0.1040000000	and social network
0.1040000000	of markov chains
0.1040000000	non parametric model
0.1040000000	of decision theory
0.1040000000	a metric learning
0.1040000000	a mathematical theory
0.1040000000	and convex optimization
0.1040000000	the data but
0.1040000000	a partial order
0.1040000000	and high accuracy
0.1040000000	a critical step
0.1040000000	of text data
0.1040000000	to solve problems
0.1040000000	and social sciences
0.1040000000	the generalization properties
0.1040000000	via stochastic gradient
0.1040000000	a shared representation
0.1040000000	the estimation accuracy
0.1040000000	of decision tree
0.1040000000	to facilitate research
0.1040000000	and spatio temporal
0.1040000000	an approach called
0.1040000000	via convex optimization
0.1040000000	with supervised learning
0.1040000000	to accurately model
0.1040000000	a semantic space
0.1040000000	to extract meaningful
0.1040000000	available training data
0.1040000000	and approximate inference
0.1040000000	of linear functions
0.1040000000	and compressed sensing
0.1040000000	a critical point
0.1040000000	more general problem
0.1040000000	the computational costs
0.1040000000	and high frequency
0.1040000000	with hand crafted
0.1040000000	in pattern recognition
0.1040000000	with fully convolutional
0.1040000000	a superior performance
0.1040000000	a baseline method
0.1040000000	and significantly improve
0.1040000000	a fundamental challenge
0.1040000000	a systematic review
0.1040000000	with pre trained
0.1040000000	to solve large
0.1040000000	and upper bounds
0.1040000000	the true posterior
0.1040000000	an online manner
0.1040000000	and data augmentation
0.1040000000	the computational effort
0.1040000000	and high quality
0.1040000000	of multiple agents
0.1040000000	and computationally efficient
0.1040000000	and gene expression
0.1040000000	and fuzzy logic
0.1040000000	and dimensionality reduction
0.1040000000	and energy efficient
0.1040000000	to facilitate future
0.1040000000	and ground truth
0.1040000000	and naive bayes
0.1040000000	and social media
0.1040000000	of multiple objects
0.1040000000	and content based
0.1040000000	non stationary environments
0.1040000000	non convex problems
0.1040000000	non convex problem
0.1040000000	a semantic segmentation
0.1040000000	of fine tuning
0.1040000000	and effective method
0.1040000000	n data points
0.1040000000	an algorithm called
0.1040000000	the approach by
0.1040000000	known lower bounds
0.1040000000	using gaussian processes
0.1040000000	using convolutional networks
0.1040000000	using linear regression
0.1040000000	the recent successes
0.1040000000	this approach yields
0.1040000000	the energy landscape
0.1040000000	the prediction task
0.1040000000	the simulation results
0.1040000000	the large sample
0.1040000000	the class imbalance
0.1040000000	the computational requirements
0.1040000000	the computational load
0.1040000000	the object recognition
0.1040000000	the fine tuning
0.1040000000	this approach outperforms
0.1040000000	the true label
0.1040000000	the true solution
0.1040000000	the pattern recognition
0.1040000000	the estimation problem
0.1040000000	the potential applications
0.1040000000	the recent past
0.1040000000	the recent literature
0.1040000000	the recent development
0.1040000000	two loss functions
0.1040000000	the data dimensionality
0.1040000000	the data acquisition
0.1040000000	two real datasets
0.1040000000	several data sets
0.1040000000	as ground truth
0.1040000000	this optimization problem
0.1040000000	this approach works
0.1040000000	this approach achieves
0.1040000000	this approach enables
0.1040000000	other recently proposed
0.1040000000	new large scale
0.1040000000	show promising results
0.1040000000	this paper establishes
0.1040000000	an information retrieval
0.1040000000	of mid level
0.1040000000	an image processing
0.1040000000	of user behavior
0.1040000000	of fully connected
0.1040000000	of autonomous systems
0.1040000000	the resulting architecture
0.1040000000	this paper surveys
0.1040000000	of binary variables
0.1040000000	of binary classification
0.1040000000	of applications including
0.1040000000	of answer sets
0.1040000000	the training corpus
0.1040000000	of probability theory
0.1040000000	this paper explains
0.1040000000	an intuitive interpretation
0.1040000000	of dictionary learning
0.1040000000	of stochastic gradient
0.1040000000	the resulting networks
0.1040000000	with fine grained
0.1040000000	of probability distributions
0.1040000000	of bayesian networks
0.1040000000	an effective algorithm
0.1040000000	of game theory
0.1040000000	with task specific
0.1040000000	as hidden markov
0.1040000000	this paper contributes
0.1040000000	an image representation
0.1040000000	of user generated
0.1040000000	using pre trained
0.1040000000	a quantitative analysis
0.1040000000	the main task
0.1040000000	to directly optimize
0.1040000000	to directly predict
0.1040000000	of experimental results
0.1040000000	a network based
0.1040000000	this paper builds
0.1040000000	this paper evaluates
0.1040000000	to automatically classify
0.1040000000	to automatically infer
0.1040000000	to automatically estimate
0.1040000000	to automatically determine
0.1040000000	to automatically discover
0.1040000000	to automatically recognize
0.1040000000	to automatically extract
0.1040000000	to automatically detect
0.1040000000	to automatically generate
0.1040000000	to natural language
0.1040000000	and bounding box
0.1040000000	a continuous relaxation
0.1040000000	using gradient descent
0.1040000000	and dictionary learning
0.1040000000	to perform model
0.1040000000	to perform efficient
0.1040000000	to perform poorly
0.1040000000	to perform automatic
0.1040000000	an information extraction
0.1040000000	in high resolution
0.1040000000	to recognize human
0.1040000000	to language modeling
0.1040000000	to perform inference
0.1040000000	an extremely high
0.1040000000	an image patch
0.1040000000	an image classifier
0.1040000000	an unknown environment
0.1040000000	an empirical investigation
0.1040000000	an accurate prediction
0.1040000000	the point spread
0.1040000000	various data sets
0.1040000000	only unlabeled data
0.1040000000	to perform classification
0.1040000000	an ontology based
0.1040000000	of parameter estimation
0.1040000000	a highly effective
0.1040000000	a highly accurate
0.1040000000	an effective strategy
0.1040000000	to perform tasks
0.1040000000	and demonstrate significant
0.1040000000	and test set
0.1040000000	with extensive experiments
0.1040000000	the main problems
0.1040000000	with machine learning
0.1040000000	and test sets
0.1040000000	various machine learning
0.1040000000	with data augmentation
0.1040000000	the numerical results
0.1040000000	with synthetic data
0.1040000000	with human judgments
0.1040000000	a linear program
0.1040000000	with bandit feedback
0.1040000000	of causal models
0.1040000000	this paper revisits
0.1040000000	a linear regression
0.1040000000	a linear rate
0.1040000000	the mnist handwritten
0.1040000000	uses machine learning
0.1040000000	of manually labeled
0.1040000000	of causal inference
0.1040000000	a quantitative evaluation
0.1040000000	such high dimensional
0.1040000000	a detailed description
0.1040000000	the main contributions
0.1040000000	an effective solution
0.1040000000	the main purpose
0.1040000000	in signal processing
0.1040000000	two benchmark datasets
0.1040000000	a linear programming
0.1040000000	from machine learning
0.1040000000	this paper concerns
0.1040000000	in previous works
0.1040000000	a network structure
0.1040000000	in object recognition
0.1040000000	the training sample
0.1040000000	to directly learn
0.1040000000	with theoretical guarantees
0.1040000000	of autonomous vehicles
0.1040000000	a continuous vector
0.1040000000	with promising results
0.1040000000	using multi task
0.1040000000	a network architecture
0.1040000000	the main problem
0.1040000000	and recommender systems
0.1040000000	a document to
0.1040000000	a linear svm
0.1040000000	the mnist data
0.1040000000	to automatically select
0.1040000000	a detailed study
0.1040000000	using deep recurrent
0.1040000000	a logistic regression
0.1040000000	in recommender systems
0.1040000000	a linear transformation
0.1040000000	an effective means
0.1040000000	this paper attempts
0.1040000000	of graph based
0.1040000000	the resulting method
0.1040000000	in high dimensional
0.1040000000	two dimensional space
0.1040000000	of labeled examples
0.1040000000	from face images
0.1040000000	the resulting models
0.1040000000	and logic programming
0.1040000000	on feature engineering
0.1040000000	the resulting approach
0.1040000000	and strongly convex
0.1040000000	to automatically segment
0.1040000000	the main difference
0.1040000000	this paper tackles
0.1040000000	a linear approximation
0.1040000000	an image based
0.1040000000	the resulting feature
0.1040000000	an unknown distribution
0.1040000000	several application domains
0.1040000000	an image sequence
0.1040000000	to collaborative filtering
0.1040000000	this paper summarizes
0.1040000000	the core idea
0.1040000000	an effective technique
0.1040000000	an unknown function
0.1040000000	and intra class
0.1040000000	to automatically identify
0.1040000000	various benchmark datasets
0.1040000000	in structured prediction
0.1040000000	a linear model
0.1040000000	of satellite images
0.1040000000	various applications including
0.1040000000	of user preferences
0.1040000000	using data mining
0.1040000000	using deep convolutional
0.1040000000	using deep networks
0.1040000000	this method outperforms
0.1040000000	this paper makes
0.1040000000	this paper offers
0.1040000000	this paper defines
0.1040000000	using multi scale
0.1040000000	the information loss
0.1040000000	through numerical experiments
0.1040000000	through numerical simulations
0.1040000000	the label information
0.1040000000	using artificial neural
0.1040000000	using artificial intelligence
0.1040000000	over previous methods
0.1040000000	the main reasons
0.1040000000	using hand crafted
0.1040000000	several benchmark datasets
0.1040000000	the main difficulty
0.1040000000	the main feature
0.1040000000	several existing methods
0.1040000000	this paper compares
0.1040000000	the label space
0.1040000000	the main result
0.1040000000	the main advantages
0.1040000000	the main contribution
0.1040000000	the main reason
0.1040000000	the main computational
0.1040000000	the main approaches
0.1040000000	the main results
0.1040000000	the main technical
0.1040000000	the main ideas
0.1040000000	the main motivation
0.1040000000	the training objective
0.1040000000	this paper outlines
0.1040000000	this paper derives
0.1040000000	the resulting algorithms
0.1040000000	the resulting representation
0.1040000000	the resulting images
0.1040000000	the artificial intelligence
0.1040000000	the information gain
0.1040000000	the information flow
0.1040000000	the information theoretic
0.1040000000	the information needed
0.1040000000	near optimal solutions
0.1040000000	the probability distributions
0.1040000000	into low dimensional
0.1040000000	as semi supervised
0.1040000000	the representational power
0.1040000000	k means problem
0.1040000000	for early detection
0.1040000000	this paper applies
0.1040000000	several real life
0.1040000000	show improved performance
0.1040000000	this paper proposed
0.1040000000	this paper suggests
0.1040000000	this paper takes
0.1040000000	this paper analyses
0.1040000000	this paper illustrates
0.1040000000	both real world
0.1040000000	this method achieves
0.1040000000	using genetic algorithms
0.1040000000	to large datasets
0.1040000000	using social media
0.1040000000	using genetic algorithm
0.1040000000	in knowledge bases
0.1040000000	of image captioning
0.1040000000	a question answering
0.1040000000	of model free
0.1040000000	computer vision task
0.1040000000	the discriminative features
0.1040000000	computer vision techniques
0.1040000000	a key aspect
0.1040000000	a fixed length
0.1040000000	the key ingredients
0.1040000000	of lexical resources
0.1040000000	overall classification accuracy
0.1040000000	more energy efficient
0.1040000000	of dimensionality reduction
0.1040000000	to large scale
0.1040000000	the key insight
0.1040000000	of computational efficiency
0.1040000000	of computational complexity
0.1040000000	a higher accuracy
0.1040000000	of model based
0.1040000000	given data set
0.1040000000	of collaborative filtering
0.1040000000	of question answering
0.1040000000	the sparsity level
0.1040000000	the imagenet classification
0.1040000000	a small constant
0.1040000000	of artificial intelligence
0.1040000000	a fixed size
0.1040000000	in human language
0.1040000000	on large data
0.1040000000	a prior knowledge
0.1040000000	of natural images
0.1040000000	of software engineering
0.1040000000	an open research
0.1040000000	an open challenge
0.1040000000	an open issue
0.1040000000	a practical implementation
0.1040000000	to jointly optimize
0.1040000000	mean field variational
0.1040000000	mean field theory
0.1040000000	mean field approximation
0.1040000000	the key features
0.1040000000	an experimental analysis
0.1040000000	an extensive comparison
0.1040000000	to significantly outperform
0.1040000000	to learn local
0.1040000000	to learn deep
0.1040000000	to learn multi
0.1040000000	to learn latent
0.1040000000	to learn robust
0.1040000000	a learning framework
0.1040000000	while maintaining high
0.1040000000	the existing models
0.1040000000	a classifier trained
0.1040000000	in deep convolutional
0.1040000000	a pattern recognition
0.1040000000	in topic models
0.1040000000	mean field algorithm
0.1040000000	an adaptive approach
0.1040000000	mean field inference
0.1040000000	the memory consumption
0.1040000000	an ensemble learning
0.1040000000	an ensemble method
0.1040000000	an ensemble based
0.1040000000	an optimization framework
0.1040000000	an optimization method
0.1040000000	a powerful technique
0.1040000000	to correctly identify
0.1040000000	the bounding boxes
0.1040000000	to jointly train
0.1040000000	the key factors
0.1040000000	a major bottleneck
0.1040000000	an energy based
0.1040000000	a learning agent
0.1040000000	a higher order
0.1040000000	a prediction model
0.1040000000	through machine learning
0.1040000000	the key challenge
0.1040000000	for spoken language
0.1040000000	the dataset size
0.1040000000	using genetic programming
0.1040000000	a comparative evaluation
0.1040000000	for answer set
0.1040000000	while maintaining similar
0.1040000000	a spatio temporal
0.1040000000	a core component
0.1040000000	a state space
0.1040000000	a computational cost
0.1040000000	a visual turing
0.1040000000	a practical application
0.1040000000	to learn visual
0.1040000000	a bayesian model
0.1040000000	computer vision methods
0.1040000000	a key advantage
0.1040000000	a key feature
0.1040000000	to learn discriminative
0.1040000000	a practical approach
0.1040000000	the conditional probabilities
0.1040000000	a learning rate
0.1040000000	a key step
0.1040000000	of image denoising
0.1040000000	a key observation
0.1040000000	to effectively learn
0.1040000000	a factor graph
0.1040000000	computer vision based
0.1040000000	a key element
0.1040000000	a prior distribution
0.1040000000	a major limitation
0.1040000000	of combinatorial optimization
0.1040000000	by supervised learning
0.1040000000	a problem specific
0.1040000000	a classical problem
0.1040000000	a key question
0.1040000000	a core problem
0.1040000000	in expert systems
0.1040000000	a practical algorithm
0.1040000000	in depth analysis
0.1040000000	of image patches
0.1040000000	the key observation
0.1040000000	to learn representations
0.1040000000	a practical solution
0.1040000000	a key issue
0.1040000000	without ground truth
0.1040000000	of natural languages
0.1040000000	in semantic web
0.1040000000	from low level
0.1040000000	a pattern based
0.1040000000	a small region
0.1040000000	a sentiment analysis
0.1040000000	a powerful approach
0.1040000000	a key ingredient
0.1040000000	a computational complexity
0.1040000000	a higher dimensional
0.1040000000	this article addresses
0.1040000000	a visual representation
0.1040000000	to noisy data
0.1040000000	a small sample
0.1040000000	by cross validation
0.1040000000	a small perturbation
0.1040000000	an extensive empirical
0.1040000000	a computational study
0.1040000000	by existing methods
0.1040000000	a small dataset
0.1040000000	a key task
0.1040000000	an ensemble classifier
0.1040000000	a fixed point
0.1040000000	a key factor
0.1040000000	of natural scenes
0.1040000000	to significantly improve
0.1040000000	in translation quality
0.1040000000	a small training
0.1040000000	computer vision community
0.1040000000	a visual scene
0.1040000000	in binary classification
0.1040000000	in dynamical systems
0.1040000000	for regression problems
0.1040000000	a posteriori estimation
0.1040000000	for parameter estimation
0.1040000000	in semantic segmentation
0.1040000000	the primary goal
0.1040000000	an agent based
0.1040000000	at large scale
0.1040000000	a small scale
0.1040000000	the conditional likelihood
0.1040000000	a learning task
0.1040000000	a learning approach
0.1040000000	an extensive study
0.1040000000	only image level
0.1040000000	a major drawback
0.1040000000	by numerical experiments
0.1040000000	a big data
0.1040000000	to learn policies
0.1040000000	in graphical models
0.1040000000	the bounding box
0.1040000000	a major obstacle
0.1040000000	new loss function
0.1040000000	the squared error
0.1040000000	a learning problem
0.1040000000	no labeled data
0.1040000000	to learn complex
0.1040000000	computer vision problem
0.1040000000	a bayesian inference
0.1040000000	a practical method
0.1040000000	the small sample
0.1040000000	to learn image
0.1040000000	the previous methods
0.1040000000	of model parameters
0.1040000000	the level set
0.1040000000	the signal processing
0.1040000000	the weakly supervised
0.1040000000	the common approach
0.1040000000	the existing solutions
0.1040000000	the existing works
0.1040000000	the existing deep
0.1040000000	the existing algorithms
0.1040000000	the existing literature
0.1040000000	the existing techniques
0.1040000000	the exponential growth
0.1040000000	the spatial temporal
0.1040000000	the spatial distribution
0.1040000000	the case study
0.1040000000	the extensive experiments
0.1040000000	the inference procedure
0.1040000000	the image pixels
0.1040000000	the image plane
0.1040000000	the image feature
0.1040000000	the benchmark datasets
0.1040000000	most machine learning
0.1040000000	the key ingredient
0.1040000000	the key challenges
0.1040000000	the key contribution
0.1040000000	the key issues
0.1040000000	the key innovation
0.1040000000	the content based
0.1040000000	the memory requirements
0.1040000000	the memory requirement
0.1040000000	the initial state
0.1040000000	the initial conditions
0.1040000000	the specific problem
0.1040000000	the specific task
0.1040000000	this report presents
0.1040000000	the previous approaches
0.1040000000	the previous works
0.1040000000	the dataset consists
0.1040000000	new neural network
0.1040000000	on spectral clustering
0.1040000000	for single view
0.1040000000	on unlabeled data
0.1040000000	for online linear
0.1040000000	on large scale
0.1040000000	for optimization problems
0.1040000000	for black box
0.1040000000	many high dimensional
0.1040000000	from gene expression
0.1040000000	on large amounts
0.1040000000	for nearest neighbor
0.1040000000	the loss surface
0.1040000000	the causal effect
0.1040000000	and domain adaptation
0.1040000000	for gesture recognition
0.1040000000	of neural models
0.1040000000	of network parameters
0.1040000000	for emotion recognition
0.1040000000	of mixture models
0.1040000000	of benchmark datasets
0.1040000000	of local descriptors
0.1040000000	of local optima
0.1040000000	the preliminary results
0.1040000000	to existing techniques
0.1040000000	against adversarial examples
0.1040000000	of prediction accuracy
0.1040000000	of deep architectures
0.1040000000	of deep cnns
0.1040000000	and problem solving
0.1040000000	of dynamic programming
0.1040000000	of dynamic systems
0.1040000000	of information processing
0.1040000000	of information retrieval
0.1040000000	3d convolutional networks
0.1040000000	of generated images
0.1040000000	for big data
0.1040000000	the great success
0.1040000000	of local minima
0.1040000000	very large scale
0.1040000000	of information theory
0.1040000000	to model complex
0.1040000000	an evolutionary approach
0.1040000000	and object classification
0.1040000000	of deep models
0.1040000000	of singular values
0.1040000000	and classification tasks
0.1040000000	of real world
0.1040000000	and parameter estimation
0.1040000000	with transfer learning
0.1040000000	with reinforcement learning
0.1040000000	and inference algorithms
0.1040000000	the fundamental problems
0.1040000000	and empirically evaluate
0.1040000000	to artificial intelligence
0.1040000000	and structural information
0.1040000000	with higher order
0.1040000000	and information theory
0.1040000000	and identically distributed
0.1040000000	to fine grained
0.1040000000	and online learning
0.1040000000	to process large
0.1040000000	and predictive accuracy
0.1040000000	the challenging kitti
0.1040000000	and classification accuracy
0.1040000000	with higher accuracy
0.1040000000	and video frames
0.1040000000	any prior knowledge
0.1040000000	most real world
0.1040000000	however existing methods
0.1040000000	with gradient descent
0.1040000000	an optimal strategy
0.1040000000	and domain specific
0.1040000000	and relation extraction
0.1040000000	and object tracking
0.1040000000	of gradient based
0.1040000000	and information retrieval
0.1040000000	and logistic regression
0.1040000000	and stochastic optimization
0.1040000000	the promising results
0.1040000000	and long term
0.1040000000	and standard deviation
0.1040000000	and robust method
0.1040000000	to existing models
0.1040000000	and object recognition
0.1040000000	of real valued
0.1040000000	on real life
0.1040000000	of conditional probability
0.1040000000	to ground truth
0.1040000000	and real life
0.1040000000	to adversarial perturbations
0.1040000000	and rough set
0.1040000000	and pose variations
0.1040000000	and sample complexity
0.1040000000	and pose estimation
0.1040000000	and classification problems
0.1040000000	with genetic algorithms
0.1040000000	and real examples
0.1040000000	and robust approach
0.1040000000	with long term
0.1040000000	and short term
0.1040000000	an approximate solution
0.1040000000	to existing methods
0.1040000000	of real life
0.1040000000	of real data
0.1040000000	using monte carlo
0.1040000000	of indoor scenes
0.1040000000	of deep cnn
0.1040000000	to high dimensional
0.1040000000	between random variables
0.1040000000	and natural images
0.1040000000	the excellent performance
0.1040000000	an importance sampling
0.1040000000	to noise ratio
0.1040000000	an event based
0.1040000000	to existing approaches
0.1040000000	the fundamental problem
0.1040000000	the promising performance
0.1040000000	the correct answer
0.1040000000	the regression coefficients
0.1040000000	the challenging pascal
0.1040000000	the application domain
0.1040000000	from high level
0.1040000000	the internal representation
0.1040000000	the random variables
0.1040000000	some real world
0.1040000000	the np hard
0.1040000000	on real datasets
0.1040000000	on data collected
0.1040000000	for dimension reduction
0.1040000000	many real life
0.1040000000	however existing approaches
0.1040000000	on low dimensional
0.1040000000	from high resolution
0.1040000000	for dimensionality reduction
0.1040000000	as machine translation
0.1040000000	novel deep learning
0.1040000000	different data sets
0.1040000000	of arbitrary length
0.1040000000	a formal semantics
0.1040000000	of moving objects
0.1040000000	of random features
0.1040000000	of visual data
0.1040000000	of visual features
0.1040000000	and lower bounds
0.1040000000	of multi scale
0.1040000000	of methods to
0.1040000000	of latent variable
0.1040000000	of predictive models
0.1040000000	of semantic relatedness
0.1040000000	a user defined
0.1040000000	of false positive
0.1040000000	a latent representation
0.1040000000	for multi step
0.1040000000	of nearest neighbor
0.1040000000	a low level
0.1040000000	co occurrence networks
0.1040000000	for learning sparse
0.1040000000	in language modeling
0.1040000000	via reinforcement learning
0.1040000000	to image classification
0.1040000000	and word embeddings
0.1040000000	and random forests
0.1040000000	and random forest
0.1040000000	and graph based
0.1040000000	the optimal choice
0.1040000000	a direct application
0.1040000000	of ground truth
0.1040000000	with neural network
0.1040000000	and monte carlo
0.1040000000	a convex surrogate
0.1040000000	and training data
0.1040000000	with real data
0.1040000000	on classification tasks
0.1040000000	a robust approach
0.1040000000	of multi class
0.1040000000	with numerical experiments
0.1040000000	to image denoising
0.1040000000	a trained cnn
0.1040000000	and simulated annealing
0.1040000000	in cognitive science
0.1040000000	a deep autoencoder
0.1040000000	and practical aspects
0.1040000000	and practical applications
0.1040000000	with pixel level
0.1040000000	with large scale
0.1040000000	with large number
0.1040000000	with incomplete information
0.1040000000	and metric learning
0.1040000000	and batch normalization
0.1040000000	to image synthesis
0.1040000000	a popular framework
0.1040000000	and signal processing
0.1040000000	and visual quality
0.1040000000	and visual features
0.1040000000	and depth information
0.1040000000	for support vector
0.1040000000	and retrieval tasks
0.1040000000	the general theory
0.1040000000	and target domains
0.1040000000	and simulated data
0.1040000000	the joint learning
0.1040000000	of multi dimensional
0.1040000000	with gaussian process
0.1040000000	with gaussian processes
0.1040000000	and consistent improvements
0.1040000000	of multi modal
0.1040000000	and large scale
0.1040000000	a specific application
0.1040000000	and image denoising
0.1040000000	and image retrieval
0.1040000000	and image processing
0.1040000000	and image classification
0.1040000000	and testing data
0.1040000000	the competitive performance
0.1040000000	a finite mixture
0.1040000000	in detection performance
0.1040000000	from unlabeled data
0.1040000000	and dimension reduction
0.1040000000	a deep recurrent
0.1040000000	and sentiment analysis
0.1040000000	and fine tuned
0.1040000000	and fine tuning
0.1040000000	and qualitative experiments
0.1040000000	of loss function
0.1040000000	a recent paper
0.1040000000	and sentiment classification
0.1040000000	a unique solution
0.1040000000	of visual attention
0.1040000000	a specific domain
0.1040000000	a high precision
0.1040000000	a high speed
0.1040000000	a specific task
0.1040000000	for color images
0.1040000000	a popular research
0.1040000000	of visual words
0.1040000000	a user friendly
0.1040000000	of total variation
0.1040000000	a deep fully
0.1040000000	a supervised classification
0.1040000000	for pixel wise
0.1040000000	the sparse coefficients
0.1040000000	a finite state
0.1040000000	a low false
0.1040000000	a cnn architecture
0.1040000000	a comprehensive study
0.1040000000	a convex formulation
0.1040000000	in recent research
0.1040000000	the general public
0.1040000000	in recognition accuracy
0.1040000000	in rule based
0.1040000000	in linear regression
0.1040000000	a comprehensive experimental
0.1040000000	a weighted average
0.1040000000	a supervised setting
0.1040000000	a finite sample
0.1040000000	with neural networks
0.1040000000	a natural framework
0.1040000000	with real world
0.1040000000	a structured prediction
0.1040000000	without fine tuning
0.1040000000	a low resource
0.1040000000	many classification problems
0.1040000000	a convex relaxation
0.1040000000	a knowledge representation
0.1040000000	a significant challenge
0.1040000000	a conditional probability
0.1040000000	a recent approach
0.1040000000	a random variable
0.1040000000	a structured output
0.1040000000	a short term
0.1040000000	a significant speedup
0.1040000000	a comprehensive framework
0.1040000000	the conventional approach
0.1040000000	of arbitrary size
0.1040000000	for efficient inference
0.1040000000	on benchmark data
0.1040000000	a cnn based
0.1040000000	of semantic web
0.1040000000	a formal analysis
0.1040000000	for machine learning
0.1040000000	from multiple sources
0.1040000000	a popular model
0.1040000000	a formal language
0.1040000000	a common space
0.1040000000	some machine learning
0.1040000000	a theoretical perspective
0.1040000000	a natural approach
0.1040000000	a general technique
0.1040000000	a random vector
0.1040000000	use deep learning
0.1040000000	a dedicated expectation
0.1040000000	the optimal parameters
0.1040000000	and fine grained
0.1040000000	in transfer learning
0.1040000000	a specific class
0.1040000000	a theoretical study
0.1040000000	and image analysis
0.1040000000	a low complexity
0.1040000000	for learning deep
0.1040000000	of loss functions
0.1040000000	a finite dimensional
0.1040000000	a direct comparison
0.1040000000	a greedy search
0.1040000000	a common latent
0.1040000000	a theoretical guarantee
0.1040000000	a preliminary study
0.1040000000	a cross validation
0.1040000000	and image captioning
0.1040000000	a cross entropy
0.1040000000	a theoretical explanation
0.1040000000	in decision making
0.1040000000	in breast cancer
0.1040000000	a face recognition
0.1040000000	a popular technique
0.1040000000	a general algorithm
0.1040000000	in f1 score
0.1040000000	and word embedding
0.1040000000	a robust optimization
0.1040000000	the expected loss
0.1040000000	of higher order
0.1040000000	a general learning
0.1040000000	a natural choice
0.1040000000	a natural question
0.1040000000	a theoretical foundation
0.1040000000	most previous methods
0.1040000000	a significant boost
0.1040000000	a gradient based
0.1040000000	a gradient descent
0.1040000000	a common framework
0.1040000000	a common practice
0.1040000000	a common feature
0.1040000000	a deep cnn
0.1040000000	a coordinate descent
0.1040000000	a random subset
0.1040000000	a significant problem
0.1040000000	a probability model
0.1040000000	a probability measure
0.1040000000	for multi objective
0.1040000000	a general formulation
0.1040000000	a heuristic method
0.1040000000	a supervised approach
0.1040000000	less training data
0.1040000000	a common representation
0.1040000000	most popular methods
0.1040000000	a fast implementation
0.1040000000	a significant gain
0.1040000000	the results achieved
0.1040000000	on benchmark datasets
0.1040000000	and question answering
0.1040000000	most previous works
0.1040000000	a mutual information
0.1040000000	and hand crafted
0.1040000000	a comparable performance
0.1040000000	in social network
0.1040000000	a popular algorithm
0.1040000000	a popular topic
0.1040000000	a latent vector
0.1040000000	the minimax optimal
0.1040000000	three large scale
0.1040000000	a wide margin
0.1040000000	of multi label
0.1040000000	using supervised learning
0.1040000000	the optimal classifier
0.1040000000	some numerical experiments
0.1040000000	the anomaly detection
0.1040000000	the optimal model
0.1040000000	the optimal solutions
0.1040000000	the general framework
0.1040000000	the exact solution
0.1040000000	the user item
0.1040000000	the user experience
0.1040000000	the gradient vanishing
0.1040000000	the rule based
0.1040000000	the open problem
0.1040000000	the classification error
0.1040000000	the cost functions
0.1040000000	the results presented
0.1040000000	the results confirm
0.1040000000	the results reveal
0.1040000000	the alternating direction
0.1040000000	most previous approaches
0.1040000000	the conventional methods
0.1040000000	the sparse and
0.1040000000	the optimization problems
0.1040000000	the general approach
0.1040000000	the likelihood ratio
0.1040000000	on language modeling
0.1040000000	the practical application
0.1040000000	the optimization procedure
0.1040000000	the expected improvement
0.1040000000	most popular algorithms
0.1040000000	the intermediate layers
0.1040000000	many visual recognition
0.1040000000	most existing models
0.1040000000	most existing works
0.1040000000	most existing algorithms
0.1040000000	most existing studies
0.1040000000	from observed data
0.1040000000	on pattern recognition
0.1040000000	on binary classification
0.1040000000	on benchmark problems
0.1040000000	on classification accuracy
0.1040000000	for fine tuning
0.1040000000	for learning representations
0.1040000000	for learning linear
0.1040000000	for learning latent
0.1040000000	on spatio temporal
0.1040000000	from multiple domains
0.1040000000	from multiple modalities
0.1040000000	on image classification
0.1040000000	on image processing
0.1040000000	for multi agent
0.1040000000	from big data
0.1040000000	on deep learning
0.1040000000	for scene text
0.1040000000	many application domains
0.1040000000	for multi relational
0.1040000000	for multi scale
0.1040000000	best single model
0.1040000000	use neural networks
0.1040000000	of existing methods
0.1040000000	of existing approaches
0.1040000000	for data clustering
0.1040000000	of stable models
0.1040000000	via deep convolutional
0.1040000000	back propagation neural
0.1040000000	for sentiment analysis
0.1040000000	such prior knowledge
0.1040000000	of signal processing
0.1040000000	of hyper parameters
0.1040000000	the convolutional filters
0.1040000000	of facial expressions
0.1040000000	of open source
0.1040000000	of breast cancer
0.1040000000	while deep learning
0.1040000000	of propositional logic
0.1040000000	to capture long
0.1040000000	the visual cortex
0.1040000000	the human connectome
0.1040000000	of gaussian process
0.1040000000	four benchmark datasets
0.1040000000	of sample data
0.1040000000	via deep learning
0.1040000000	of training set
0.1040000000	of training examples
0.1040000000	of training samples
0.1040000000	of problem solving
0.1040000000	of problem instances
0.1040000000	of influence diagrams
0.1040000000	an average dice
0.1040000000	of textual data
0.1040000000	to improve generalization
0.1040000000	of piecewise linear
0.1040000000	self supervised learning
0.1040000000	and computational cost
0.1040000000	an average precision
0.1040000000	an input sequence
0.1040000000	to capture semantic
0.1040000000	to capture complex
0.1040000000	of object instances
0.1040000000	of previous methods
0.1040000000	to avoid overfitting
0.1040000000	of function evaluations
0.1040000000	and multi layer
0.1040000000	to reduce computation
0.1040000000	an artificial intelligence
0.1040000000	to improve accuracy
0.1040000000	to improve learning
0.1040000000	to improve image
0.1040000000	to improve performance
0.1040000000	to gain insights
0.1040000000	to gain insight
0.1040000000	to enable efficient
0.1040000000	and motion blur
0.1040000000	for fully connected
0.1040000000	to efficiently solve
0.1040000000	to efficiently search
0.1040000000	to efficiently compute
0.1040000000	to provide accurate
0.1040000000	to segment objects
0.1040000000	with additional information
0.1040000000	of training data
0.1040000000	for high resolution
0.1040000000	the test results
0.1040000000	to handle missing
0.1040000000	very promising results
0.1040000000	an iterative process
0.1040000000	an iterative method
0.1040000000	and evaluation metrics
0.1040000000	new training algorithm
0.1040000000	an unbiased estimator
0.1040000000	an auto encoder
0.1040000000	and instance segmentation
0.1040000000	and efficient approach
0.1040000000	to accelerate training
0.1040000000	and language model
0.1040000000	and learning based
0.1040000000	and local search
0.1040000000	for speech recognition
0.1040000000	four real world
0.1040000000	for high accuracy
0.1040000000	and total variation
0.1040000000	and multi modal
0.1040000000	for anomaly detection
0.1040000000	of adversarial attacks
0.1040000000	to handle large
0.1040000000	and higher order
0.1040000000	and super resolution
0.1040000000	and answer set
0.1040000000	and efficient algorithms
0.1040000000	an inference problem
0.1040000000	and numerical results
0.1040000000	the computation cost
0.1040000000	to real images
0.1040000000	and outlier detection
0.1040000000	and multi view
0.1040000000	the approximation quality
0.1040000000	of continuous variables
0.1040000000	to machine learning
0.1040000000	of art performance
0.1040000000	in computational efficiency
0.1040000000	a technique called
0.1040000000	the approximation ratio
0.1040000000	of facial expression
0.1040000000	for face verification
0.1040000000	of object recognition
0.1040000000	with recurrent neural
0.1040000000	and regression tasks
0.1040000000	for information retrieval
0.1040000000	and multi objective
0.1040000000	and false positive
0.1040000000	and task specific
0.1040000000	and learning problems
0.1040000000	an active research
0.1040000000	two large scale
0.1040000000	with sparse rewards
0.1040000000	and optical flow
0.1040000000	the inherent complexity
0.1040000000	and efficient algorithm
0.1040000000	and maximum likelihood
0.1040000000	for language modeling
0.1040000000	two main approaches
0.1040000000	and multi dimensional
0.1040000000	the human eye
0.1040000000	n gram features
0.1040000000	these methods require
0.1040000000	of gaussian noise
0.1040000000	and multi agent
0.1040000000	the major advantage
0.1040000000	and noisy data
0.1040000000	as prior knowledge
0.1040000000	in probabilistic logic
0.1040000000	of object proposals
0.1040000000	the posterior variance
0.1040000000	and regression problems
0.1040000000	and regression trees
0.1040000000	an exact algorithm
0.1040000000	and open source
0.1040000000	of dynamical systems
0.1040000000	to efficiently learn
0.1040000000	used machine learning
0.1040000000	of swarm intelligence
0.1040000000	with minimal supervision
0.1040000000	an iterative manner
0.1040000000	to improve prediction
0.1040000000	of object classes
0.1040000000	for inverse problems
0.1040000000	and synthetic data
0.1040000000	and computational complexity
0.1040000000	and computational efficiency
0.1040000000	and computational properties
0.1040000000	on synthetic datasets
0.1040000000	for high quality
0.1040000000	and motion segmentation
0.1040000000	and motion dynamics
0.1040000000	in convex optimization
0.1040000000	the dependency structure
0.1040000000	for pre training
0.1040000000	for high level
0.1040000000	to obtain reliable
0.1040000000	these theoretical results
0.1040000000	and empirical results
0.1040000000	to big data
0.1040000000	for information extraction
0.1040000000	the message passing
0.1040000000	several machine learning
0.1040000000	this proposed method
0.1040000000	the total variation
0.1040000000	and computational linguistics
0.1040000000	and motion planning
0.1040000000	and multi scale
0.1040000000	and pre trained
0.1040000000	to obtain high
0.1040000000	of object detection
0.1040000000	of previous approaches
0.1040000000	with contextual information
0.1040000000	of facial images
0.1040000000	and remote sensing
0.1040000000	and efficient method
0.1040000000	of kernel based
0.1040000000	to previous works
0.1040000000	with minimal effort
0.1040000000	and empirical evidence
0.1040000000	and learning algorithms
0.1040000000	and motion cues
0.1040000000	to improve classification
0.1040000000	to obtain accurate
0.1040000000	and language models
0.1040000000	using mutual information
0.1040000000	over existing methods
0.1040000000	over existing approaches
0.1040000000	using high level
0.1040000000	using random forests
0.1040000000	the learned representation
0.1040000000	the learned embeddings
0.1040000000	the learned models
0.1040000000	the syntactic structure
0.1040000000	the social media
0.1040000000	the wild images
0.1040000000	for data driven
0.1040000000	the major challenges
0.1040000000	for cnn based
0.1040000000	different language pairs
0.1040000000	the sample space
0.1040000000	the hypothesis space
0.1040000000	the convolutional feature
0.1040000000	the weight vectors
0.1040000000	the inherent structure
0.1040000000	the statistical power
0.1040000000	the source text
0.1040000000	the latent state
0.1040000000	the minimum description
0.1040000000	the human expert
0.1040000000	the state transition
0.1040000000	the post processing
0.1040000000	the design process
0.1040000000	three data sets
0.1040000000	the monte carlo
0.1040000000	the visual domain
0.1040000000	the visual appearance
0.1040000000	for reinforcement learning
0.1040000000	for high speed
0.1040000000	for social media
0.1040000000	for performance evaluation
0.1040000000	than alternative approaches
0.1040000000	for texture analysis
0.1040000000	for decision making
0.1040000000	from mr images
0.1040000000	for global optimization
0.1040000000	for noise removal
0.1040000000	for high performance
0.1040000000	for data augmentation
0.1040000000	for data sets
0.1040000000	for data analysis
0.1040000000	for data mining
0.1040000000	for natural image
0.1040000000	for natural images
0.1040000000	for performing inference
0.1040000000	for supervised learning
0.1040000000	from natural images
0.1040000000	this research area
0.1040000000	two stream convolutional
0.1040000000	two stage algorithm
0.1040000000	two stage method
0.1040000000	two step procedure
0.1040000000	several numerical experiments
0.1040000000	two machine learning
0.1040000000	two large datasets
0.1040000000	as latent variables
0.1040000000	two main contributions
0.1040000000	two main components
0.1040000000	two main challenges
0.1040000000	several recently proposed
0.1040000000	show superior performance
0.1040000000	several large scale
0.1040000000	different feature sets
0.1040000000	first large scale
0.1040000000	this research paper
0.1040000000	of discrete variables
0.1040000000	of genetic programming
0.1040000000	these results demonstrate
0.1040000000	for gradient descent
0.1040000000	the edge weights
0.1040000000	more accurate predictions
0.1040000000	of probabilistic models
0.1040000000	of large data
0.1040000000	of large annotated
0.1040000000	a statistical approach
0.1040000000	of data driven
0.1040000000	of logistic regression
0.1040000000	the proposed bayesian
0.1040000000	of input features
0.1040000000	three benchmark datasets
0.1040000000	of feature selection
0.1040000000	of feature engineering
0.1040000000	of short texts
0.1040000000	of named entity
0.1040000000	an inverse problem
0.1040000000	of current research
0.1040000000	of anomaly detection
0.1040000000	of pre trained
0.1040000000	the global optimal
0.1040000000	any feature engineering
0.1040000000	the desired output
0.1040000000	the automated analysis
0.1040000000	a long history
0.1040000000	least squares estimation
0.1040000000	a statistical learning
0.1040000000	of variable length
0.1040000000	for model based
0.1040000000	to gradient descent
0.1040000000	a substantial margin
0.1040000000	of topic modeling
0.1040000000	a statistical test
0.1040000000	of vector space
0.1040000000	a policy gradient
0.1040000000	the long short
0.1040000000	of probabilistic inference
0.1040000000	to detect outliers
0.1040000000	an integrated framework
0.1040000000	of large scale
0.1040000000	from pairwise comparisons
0.1040000000	as open source
0.1040000000	a graph theoretic
0.1040000000	more accurate results
0.1040000000	the empirical evaluation
0.1040000000	in low dose
0.1040000000	the semantic gap
0.1040000000	a probabilistic approach
0.1040000000	from statistical physics
0.1040000000	for training neural
0.1040000000	for maximum likelihood
0.1040000000	in prediction performance
0.1040000000	the empirical results
0.1040000000	a genetic programming
0.1040000000	a hybrid model
0.1040000000	the experimental result
0.1040000000	in numerous applications
0.1040000000	a task specific
0.1040000000	in text mining
0.1040000000	the algorithm presented
0.1040000000	a hybrid architecture
0.1040000000	in compressed sensing
0.1040000000	for feature extraction
0.1040000000	a stochastic process
0.1040000000	the local geometry
0.1040000000	in gaussian process
0.1040000000	a parallel corpus
0.1040000000	in fine grained
0.1040000000	the proposed optimization
0.1040000000	in compressive sensing
0.1040000000	the experimental studies
0.1040000000	of large datasets
0.1040000000	a variational approach
0.1040000000	3d medical images
0.1040000000	a hybrid algorithm
0.1040000000	in stochastic gradient
0.1040000000	a dictionary based
0.1040000000	the analysis shows
0.1040000000	for feature learning
0.1040000000	of long term
0.1040000000	in magnetic resonance
0.1040000000	from video sequences
0.1040000000	least squares problem
0.1040000000	a variational inference
0.1040000000	for solving problems
0.1040000000	least squares problems
0.1040000000	a substantial improvement
0.1040000000	a standard tool
0.1040000000	a standard benchmark
0.1040000000	of reinforcement learning
0.1040000000	of contextual information
0.1040000000	new algorithm called
0.1040000000	of hand crafted
0.1040000000	for probabilistic models
0.1040000000	the experimental analysis
0.1040000000	of description logics
0.1040000000	in supervised learning
0.1040000000	a classification approach
0.1040000000	a stochastic model
0.1040000000	in prediction accuracy
0.1040000000	a model selection
0.1040000000	the algorithm converges
0.1040000000	in particle swarm
0.1040000000	a real data
0.1040000000	many image processing
0.1040000000	a total variation
0.1040000000	in artificial intelligence
0.1040000000	for recommender systems
0.1040000000	of covariance matrices
0.1040000000	for model selection
0.1040000000	first order probabilistic
0.1040000000	a priori information
0.1040000000	least squares method
0.1040000000	the empirical study
0.1040000000	in classification accuracy
0.1040000000	in medical diagnosis
0.1040000000	in kernel methods
0.1040000000	a standard dataset
0.1040000000	a complex network
0.1040000000	a probabilistic programming
0.1040000000	in low dimensional
0.1040000000	in low level
0.1040000000	in mixture models
0.1040000000	in continuous state
0.1040000000	in noisy images
0.1040000000	a generic approach
0.1040000000	a dictionary learning
0.1040000000	two data sets
0.1040000000	a corpus based
0.1040000000	in low resource
0.1040000000	a variational bayesian
0.1040000000	of pre training
0.1040000000	a variational approximation
0.1040000000	for hyperspectral image
0.1040000000	a real life
0.1040000000	a real robot
0.1040000000	in local optima
0.1040000000	over fitting problem
0.1040000000	a variational autoencoder
0.1040000000	a context free
0.1040000000	a computationally expensive
0.1040000000	a potential solution
0.1040000000	the recognition rate
0.1040000000	in feed forward
0.1040000000	in semi supervised
0.1040000000	a complex task
0.1040000000	in dynamic networks
0.1040000000	the semantic level
0.1040000000	a great potential
0.1040000000	in classification tasks
0.1040000000	a training procedure
0.1040000000	a probabilistic generative
0.1040000000	the individual level
0.1040000000	a text document
0.1040000000	a text corpus
0.1040000000	of gene expression
0.1040000000	of input data
0.1040000000	a constraint based
0.1040000000	a ground truth
0.1040000000	in latent space
0.1040000000	in medical images
0.1040000000	of input image
0.1040000000	to detect anomalies
0.1040000000	from sensor data
0.1040000000	of bounding boxes
0.1040000000	a real dataset
0.1040000000	3d face model
0.1040000000	for artificial intelligence
0.1040000000	a dynamic programming
0.1040000000	the empirical success
0.1040000000	using bayesian optimization
0.1040000000	using image processing
0.1040000000	the camera motion
0.1040000000	the local neighborhood
0.1040000000	the camera pose
0.1040000000	the topological structure
0.1040000000	for low power
0.1040000000	the long range
0.1040000000	the high cost
0.1040000000	the high performance
0.1040000000	the high accuracy
0.1040000000	the high computational
0.1040000000	the high efficiency
0.1040000000	the binary classification
0.1040000000	on semi supervised
0.1040000000	the experimental evaluation
0.1040000000	the rapid progress
0.1040000000	the learning objective
0.1040000000	the learning curve
0.1040000000	the performance gains
0.1040000000	the performance gain
0.1040000000	the performance evaluation
0.1040000000	the semantic relationships
0.1040000000	the semantic meaning
0.1040000000	the algorithm achieves
0.1040000000	the algorithm requires
0.1040000000	the evaluation shows
0.1040000000	the global convergence
0.1040000000	the proposed mechanism
0.1040000000	the proposed techniques
0.1040000000	the proposed joint
0.1040000000	the proposed fusion
0.1040000000	the proposed pipeline
0.1040000000	the proposed filter
0.1040000000	for collaborative filtering
0.1040000000	for combinatorial optimization
0.1040000000	from pre trained
0.1040000000	for neural network
0.1040000000	for neural networks
0.1040000000	for training deep
0.1040000000	for latent variable
0.1040000000	for sequence prediction
0.1040000000	for small objects
0.1040000000	for density estimation
0.1040000000	for solving combinatorial
0.1040000000	for probabilistic inference
0.1040000000	for low dimensional
0.1040000000	for graphical models
0.1040000000	from large scale
0.1040000000	many signal processing
0.1040000000	on bayesian networks
0.1040000000	from synthetic data
0.1040000000	than existing approaches
0.1040000000	than existing methods
0.1040000000	two important issues
0.1040000000	as real world
0.1040000000	first order gradient
0.1040000000	first order optimization
0.1040000000	first order algorithms
0.1040000000	few training samples
0.1040000000	few training examples
0.1040000000	new reinforcement learning
0.1040000000	a data dependent
0.1040000000	in real applications
0.1040000000	new data set
0.1040000000	using transfer learning
0.1040000000	on gaussian processes
0.1040000000	using maximum likelihood
0.1040000000	on support vector
0.1040000000	and active learning
0.1040000000	the linear case
0.1040000000	a large training
0.1040000000	all local minima
0.1040000000	the problem domain
0.1040000000	a large proportion
0.1040000000	the method works
0.1040000000	of rough sets
0.1040000000	more complex models
0.1040000000	of belief propagation
0.1040000000	a simple method
0.1040000000	a large image
0.1040000000	a simple neural
0.1040000000	using dynamic programming
0.1040000000	a data augmentation
0.1040000000	very important role
0.1040000000	the baseline method
0.1040000000	the original signal
0.1040000000	the embedding layer
0.1040000000	of high resolution
0.1040000000	for image registration
0.1040000000	of word frequencies
0.1040000000	from previous works
0.1040000000	by machine learning
0.1040000000	and cost effective
0.1040000000	of word embeddings
0.1040000000	on public datasets
0.1040000000	the minimization problem
0.1040000000	for image enhancement
0.1040000000	for hand pose
0.1040000000	a simple class
0.1040000000	by stochastic gradient
0.1040000000	and neural network
0.1040000000	by dynamic programming
0.1040000000	and speech recognition
0.1040000000	and benchmark datasets
0.1040000000	a considerable improvement
0.1040000000	the linear convergence
0.1040000000	and cognitive science
0.1040000000	a simple baseline
0.1040000000	a discrete set
0.1040000000	in ct images
0.1040000000	a distributed setting
0.1040000000	on artificial intelligence
0.1040000000	a data matrix
0.1040000000	a simple modification
0.1040000000	a simple linear
0.1040000000	a simple framework
0.1040000000	a strong correlation
0.1040000000	and linear regression
0.1040000000	a target variable
0.1040000000	for large data
0.1040000000	from motion capture
0.1040000000	a framework called
0.1040000000	the mathematical model
0.1040000000	with skip connections
0.1040000000	of word embedding
0.1040000000	the structural information
0.1040000000	a joint probability
0.1040000000	in spoken language
0.1040000000	a simple probabilistic
0.1040000000	a distributed representation
0.1040000000	a smooth function
0.1040000000	a competitive performance
0.1040000000	of belief networks
0.1040000000	and anomaly detection
0.1040000000	a large vocabulary
0.1040000000	a joint embedding
0.1040000000	in information systems
0.1040000000	different loss functions
0.1040000000	with experimental results
0.1040000000	in feature space
0.1040000000	in unsupervised learning
0.1040000000	and autonomous driving
0.1040000000	with existing methods
0.1040000000	a neural architecture
0.1040000000	a joint framework
0.1040000000	and improve performance
0.1040000000	for large graphs
0.1040000000	a simple fast
0.1040000000	a large population
0.1040000000	in complex environments
0.1040000000	a joint optimization
0.1040000000	the feed forward
0.1040000000	a joint representation
0.1040000000	a principled manner
0.1040000000	and text mining
0.1040000000	in content based
0.1040000000	in complex systems
0.1040000000	and evolutionary computation
0.1040000000	a clear advantage
0.1040000000	zero shot classification
0.1040000000	in speech recognition
0.1040000000	in information retrieval
0.1040000000	with existing approaches
0.1040000000	in evolutionary computation
0.1040000000	a principled method
0.1040000000	for image generation
0.1040000000	a neural net
0.1040000000	of cloud computing
0.1040000000	in feature selection
0.1040000000	of high quality
0.1040000000	a joint distribution
0.1040000000	of unlabeled data
0.1040000000	the square root
0.1040000000	and evolutionary algorithms
0.1040000000	the baseline methods
0.1040000000	a simple iterative
0.1040000000	the foreground background
0.1040000000	using neural network
0.1040000000	non smooth convex
0.1040000000	and neural networks
0.1040000000	with attention mechanism
0.1040000000	using fuzzy logic
0.1040000000	one class svm
0.1040000000	for image annotation
0.1040000000	of learned features
0.1040000000	new network architecture
0.1040000000	as building blocks
0.1040000000	of learning deep
0.1040000000	using spatio temporal
0.1040000000	various real world
0.1040000000	more complex tasks
0.1040000000	for sparse representation
0.1040000000	of high level
0.1040000000	of black box
0.1040000000	for compressive sensing
0.1040000000	the bayesian framework
0.1040000000	the stochastic setting
0.1040000000	the differential evolution
0.1040000000	some experimental results
0.1040000000	for joint learning
0.1040000000	the intrinsic geometric
0.1040000000	the intrinsic dimensionality
0.1040000000	for deep networks
0.1040000000	the structural properties
0.1040000000	the prior information
0.1040000000	the linear programming
0.1040000000	for bayesian inference
0.1040000000	the network architecture
0.1040000000	the network topology
0.1040000000	the original feature
0.1040000000	this result holds
0.1040000000	the block coordinate
0.1040000000	the theoretical findings
0.1040000000	the theoretical foundations
0.1040000000	the theoretical framework
0.1040000000	the asymptotic behavior
0.1040000000	the asymptotic properties
0.1040000000	for continuous control
0.1040000000	for image based
0.1040000000	the method presented
0.1040000000	the method performs
0.1040000000	the method achieves
0.1040000000	the method relies
0.1040000000	the method combines
0.1040000000	the method proposed
0.1040000000	for kernel based
0.1040000000	the graphical structure
0.1040000000	the problem size
0.1040000000	for improved performance
0.1040000000	the input sentence
0.1040000000	the input signal
0.1040000000	the input distribution
0.1040000000	the input images
0.1040000000	the input size
0.1040000000	the variational autoencoder
0.1040000000	for cross lingual
0.1040000000	each hidden layer
0.1040000000	from depth images
0.1040000000	from rgb images
0.1040000000	for hierarchical clustering
0.1040000000	for dictionary learning
0.1040000000	from raw pixels
0.1040000000	for sparse coding
0.1040000000	for sparse signal
0.1040000000	for image captioning
0.1040000000	for image recognition
0.1040000000	for image reconstruction
0.1040000000	for image processing
0.1040000000	for image inpainting
0.1040000000	for image search
0.1040000000	for semi automatic
0.1040000000	for unsupervised learning
0.1040000000	for classification tasks
0.1040000000	for classification problems
0.1040000000	for large vocabulary
0.1040000000	on neural network
0.1040000000	on imagenet classification
0.1040000000	on pre trained
0.1040000000	for cross domain
0.1040000000	on natural language
0.1040000000	on sentiment analysis
0.1040000000	several applications including
0.1040000000	different real world
0.1040000000	one class classifier
0.1040000000	other existing methods
0.1040000000	other machine learning
0.1040000000	this survey paper
0.1040000000	for matrix completion
0.1040000000	on multi view
0.1040000000	of human beings
0.1040000000	of human body
0.1040000000	of human intelligence
0.1040000000	of human behavior
0.1040000000	of human perception
0.1040000000	and decision trees
0.1040000000	and genetic algorithms
0.1040000000	non gaussian noise
0.1040000000	a promising method
0.1040000000	of machine intelligence
0.1040000000	by maximum likelihood
0.1040000000	a multi resolution
0.1040000000	a multi level
0.1040000000	of sentiment analysis
0.1040000000	a single instance
0.1040000000	time consuming task
0.1040000000	time consuming process
0.1040000000	a single shot
0.1040000000	of human cognition
0.1040000000	of human activity
0.1040000000	a feature vector
0.1040000000	for general purpose
0.1040000000	non linear models
0.1040000000	a single objective
0.1040000000	a single cpu
0.1040000000	by combining multiple
0.1040000000	by experimental results
0.1040000000	for generative models
0.1040000000	a fully bayesian
0.1040000000	a single framework
0.1040000000	in image analysis
0.1040000000	in image captioning
0.1040000000	for privacy preserving
0.1040000000	a crucial task
0.1040000000	in visual object
0.1040000000	a meta learning
0.1040000000	a feature map
0.1040000000	by gradient descent
0.1040000000	on high level
0.1040000000	by human experts
0.1040000000	and post processing
0.1040000000	of machine learning
0.1040000000	of classification accuracy
0.1040000000	non gaussian acyclic
0.1040000000	a smaller set
0.1040000000	better classification performance
0.1040000000	and future research
0.1040000000	the final result
0.1040000000	and decision making
0.1040000000	better classification accuracy
0.1040000000	a dimensionality reduction
0.1040000000	and mutual information
0.1040000000	for handwritten digit
0.1040000000	a global minimum
0.1040000000	with image level
0.1040000000	a single task
0.1040000000	and fast algorithm
0.1040000000	and facial expression
0.1040000000	and nuclear norm
0.1040000000	with low level
0.1040000000	a unified solution
0.1040000000	non linear transformations
0.1040000000	a global optimization
0.1040000000	in image denoising
0.1040000000	in image processing
0.1040000000	in image recognition
0.1040000000	in image understanding
0.1040000000	a single global
0.1040000000	using naive bayes
0.1040000000	with low computational
0.1040000000	for robust face
0.1040000000	and sparse representation
0.1040000000	and unsupervised methods
0.1040000000	for relation classification
0.1040000000	a global scale
0.1040000000	in multi view
0.1040000000	and gaussian mixture
0.1040000000	in data analysis
0.1040000000	a unified manner
0.1040000000	a unified model
0.1040000000	on weakly supervised
0.1040000000	a global model
0.1040000000	of classification algorithms
0.1040000000	a single scale
0.1040000000	a multi step
0.1040000000	a promising direction
0.1040000000	a crucial component
0.1040000000	good generalization performance
0.1040000000	a single output
0.1040000000	a crucial problem
0.1040000000	a convolutional encoder
0.1040000000	a challenging issue
0.1040000000	a semi parametric
0.1040000000	the final performance
0.1040000000	a unified deep
0.1040000000	in extensive experiments
0.1040000000	a global optimum
0.1040000000	a simulated annealing
0.1040000000	a multi layered
0.1040000000	a human operator
0.1040000000	in video surveillance
0.1040000000	a single vector
0.1040000000	in learning theory
0.1040000000	a single neuron
0.1040000000	in multi layer
0.1040000000	a single classifier
0.1040000000	the final prediction
0.1040000000	a special kind
0.1040000000	a single parameter
0.1040000000	and simulation results
0.1040000000	a promising solution
0.1040000000	a feature extractor
0.1040000000	in probability theory
0.1040000000	in data mining
0.1040000000	or comparable performance
0.1040000000	a promising alternative
0.1040000000	a human user
0.1040000000	in vector spaces
0.1040000000	a challenging research
0.1040000000	a single gaussian
0.1040000000	a feature based
0.1040000000	of human activities
0.1040000000	in video data
0.1040000000	a multi instance
0.1040000000	and scale invariant
0.1040000000	a single label
0.1040000000	a discriminative model
0.1040000000	this problem arises
0.1040000000	a single camera
0.1040000000	a single deep
0.1040000000	a single sample
0.1040000000	a single stage
0.1040000000	a single step
0.1040000000	with ground truth
0.1040000000	a mid level
0.1040000000	a local minimizer
0.1040000000	a feature space
0.1040000000	a feature selection
0.1040000000	a single frame
0.1040000000	between data points
0.1040000000	a single cnn
0.1040000000	from social media
0.1040000000	a single point
0.1040000000	of increasing complexity
0.1040000000	a single training
0.1040000000	a feature extraction
0.1040000000	in natural scene
0.1040000000	a multi camera
0.1040000000	a local region
0.1040000000	with stochastic gradient
0.1040000000	a human expert
0.1040000000	a fully supervised
0.1040000000	non linear dynamics
0.1040000000	of human faces
0.1040000000	a crucial issue
0.1040000000	a challenging dataset
0.1040000000	for action detection
0.1040000000	a single neural
0.1040000000	and sparse coding
0.1040000000	with cross validation
0.1040000000	a multi dimensional
0.1040000000	for content based
0.1040000000	and gradient descent
0.1040000000	the traditional method
0.1040000000	and able to
0.1040000000	with varying degrees
0.1040000000	for recognizing human
0.1040000000	by fine tuning
0.1040000000	a scalable algorithm
0.1040000000	non linear regression
0.1040000000	a test sample
0.1040000000	the paper demonstrates
0.1040000000	and augmented reality
0.1040000000	the final model
0.1040000000	the final results
0.1040000000	with word embeddings
0.1040000000	of human language
0.1040000000	in fully connected
0.1040000000	novel machine learning
0.1040000000	the entire dataset
0.1040000000	non linear functions
0.1040000000	with low rank
0.1040000000	for partially observable
0.1040000000	sequential model based
0.1040000000	for robust visual
0.1040000000	a suitable choice
0.1040000000	different evaluation metrics
0.1040000000	than previous approaches
0.1040000000	a single dataset
0.1040000000	the traditional approach
0.1040000000	a human observer
0.1040000000	a method called
0.1040000000	all data sets
0.1040000000	all existing methods
0.1040000000	using reinforcement learning
0.1040000000	for robust speech
0.1040000000	the entire video
0.1040000000	the entire training
0.1040000000	the entire network
0.1040000000	the final layer
0.1040000000	as training data
0.1040000000	on test data
0.1040000000	on multi scale
0.1040000000	the reconstruction quality
0.1040000000	the developed method
0.1040000000	the decision process
0.1040000000	the precision recall
0.1040000000	the dynamic programming
0.1040000000	the segmentation performance
0.1040000000	the paper shows
0.1040000000	the paper investigates
0.1040000000	the paper addresses
0.1040000000	the paper reports
0.1040000000	the final step
0.1040000000	many deep learning
0.1040000000	the early days
0.1040000000	the experiments demonstrate
0.1040000000	the traditional approaches
0.1040000000	the traditional methods
0.1040000000	the final output
0.1040000000	the final decision
0.1040000000	the final solution
0.1040000000	for human activity
0.1040000000	the entire model
0.1040000000	the entire data
0.1040000000	the domain knowledge
0.1040000000	the end user
0.1040000000	the trained models
0.1040000000	for task oriented
0.1040000000	for open domain
0.1040000000	for automatic segmentation
0.1040000000	for long term
0.1040000000	on high dimensional
0.1040000000	for subspace clustering
0.1040000000	on high resolution
0.1040000000	on machine translation
0.1040000000	on matrix factorization
0.1040000000	for modeling complex
0.1040000000	many large scale
0.1040000000	for functional data
0.1040000000	many existing methods
0.1040000000	many existing approaches
0.1040000000	for feed forward
0.1040000000	on multiple datasets
0.1040000000	for posterior inference
0.1040000000	from real world
0.1040000000	from real data
0.1040000000	from real images
0.1040000000	for context aware
0.1040000000	for categorical data
0.1040000000	for spatio temporal
0.1040000000	as natural language
0.1040000000	use recurrent neural
0.1040000000	then fine tuned
0.1040000000	with high resolution
0.1040000000	also provide theoretical
0.1040000000	the art deep
0.1040000000	the current situation
0.1040000000	to achieve fast
0.1040000000	the art segmentation
0.1040000000	the unknown signal
0.1040000000	of domain adaptation
0.1040000000	various practical applications
0.1040000000	of speech pos
0.1040000000	of speech tagging
0.1040000000	of reconstructed images
0.1040000000	of randomly generated
0.1040000000	with limited memory
0.1040000000	and max pooling
0.1040000000	of general purpose
0.1040000000	an adversarial loss
0.1040000000	to multi label
0.1040000000	many learning tasks
0.1040000000	of medical imaging
0.1040000000	of complex systems
0.1040000000	the art feature
0.1040000000	an efficient online
0.1040000000	of low resolution
0.1040000000	of low level
0.1040000000	of sparse coding
0.1040000000	the euclidean space
0.1040000000	of cross validation
0.1040000000	an important open
0.1040000000	of compressed sensing
0.1040000000	and memory footprint
0.1040000000	an unsupervised approach
0.1040000000	an unsupervised algorithm
0.1040000000	an unsupervised feature
0.1040000000	an unsupervised learning
0.1040000000	little training data
0.1040000000	of video sequences
0.1040000000	an efficient manner
0.1040000000	an efficient iterative
0.1040000000	an efficient stochastic
0.1040000000	an efficient technique
0.1040000000	an efficient optimization
0.1040000000	an efficient variational
0.1040000000	to end speech
0.1040000000	to end trained
0.1040000000	of context dependent
0.1040000000	to achieve higher
0.1040000000	to achieve competitive
0.1040000000	to achieve robust
0.1040000000	to achieve faster
0.1040000000	an object oriented
0.1040000000	to end fashion
0.1040000000	an interesting problem
0.1040000000	most discriminative features
0.1040000000	to train classifiers
0.1040000000	with deep networks
0.1040000000	with deep learning
0.1040000000	to train deep
0.1040000000	to train models
0.1040000000	to multi class
0.1040000000	an efficient solution
0.1040000000	to mimic human
0.1040000000	and deep learning
0.1040000000	to classify objects
0.1040000000	an efficient alternative
0.1040000000	of low cost
0.1040000000	the underlying model
0.1040000000	to achieve significant
0.1040000000	an important research
0.1040000000	an important technique
0.1040000000	an important application
0.1040000000	an important challenge
0.1040000000	an important factor
0.1040000000	to constant factors
0.1040000000	an alternative method
0.1040000000	an object detector
0.1040000000	an efficient distributed
0.1040000000	an efficient tool
0.1040000000	of complex valued
0.1040000000	and human evaluation
0.1040000000	and character level
0.1040000000	with prior knowledge
0.1040000000	an object recognition
0.1040000000	with latent variables
0.1040000000	with multi task
0.1040000000	for age estimation
0.1040000000	of complex networks
0.1040000000	with high quality
0.1040000000	with high level
0.1040000000	and memory efficient
0.1040000000	of video data
0.1040000000	and bayesian networks
0.1040000000	with multi level
0.1040000000	and memory usage
0.1040000000	an automatic approach
0.1040000000	with convergence guarantees
0.1040000000	and bayesian network
0.1040000000	with multi scale
0.1040000000	to classify images
0.1040000000	with limited computational
0.1040000000	an efficient approximation
0.1040000000	and machine translation
0.1040000000	second order optimization
0.1040000000	with deep generative
0.1040000000	an efficient inference
0.1040000000	more fine grained
0.1040000000	and low power
0.1040000000	and low dimensional
0.1040000000	with small sample
0.1040000000	an important question
0.1040000000	an efficient procedure
0.1040000000	and structured prediction
0.1040000000	the underlying distribution
0.1040000000	and knowledge base
0.1040000000	better predictive performance
0.1040000000	very competitive performance
0.1040000000	of complex data
0.1040000000	the model size
0.1040000000	of boolean functions
0.1040000000	on convolutional networks
0.1040000000	the underlying assumption
0.1040000000	the current methods
0.1040000000	show experimental results
0.1040000000	further improve performance
0.1040000000	to select features
0.1040000000	and low rank
0.1040000000	with deep recurrent
0.1040000000	to answer queries
0.1040000000	for pose estimation
0.1040000000	and class labels
0.1040000000	for digital image
0.1040000000	on mutual information
0.1040000000	of speech tags
0.1040000000	the art competitors
0.1040000000	the model outperforms
0.1040000000	the art multi
0.1040000000	and machine vision
0.1040000000	as matrix factorization
0.1040000000	the art architectures
0.1040000000	to neural networks
0.1040000000	by extensive experiments
0.1040000000	with limited resources
0.1040000000	the model achieves
0.1040000000	new machine learning
0.1040000000	the underlying process
0.1040000000	an additional layer
0.1040000000	the art global
0.1040000000	of receptive fields
0.1040000000	the highest accuracy
0.1040000000	the art retrieval
0.1040000000	to answer questions
0.1040000000	between machine learning
0.1040000000	the current study
0.1040000000	an efficient framework
0.1040000000	the model complexity
0.1040000000	an important goal
0.1040000000	by reinforcement learning
0.1040000000	with high precision
0.1040000000	through deep learning
0.1040000000	second order pooling
0.1040000000	using large scale
0.1040000000	using training data
0.1040000000	the current research
0.1040000000	the classical approach
0.1040000000	the art stochastic
0.1040000000	the rank minimization
0.1040000000	the f1 score
0.1040000000	the underlying true
0.1040000000	the underlying dynamics
0.1040000000	the underlying network
0.1040000000	the underlying problem
0.1040000000	on hand crafted
0.1040000000	the current status
0.1040000000	the current literature
0.1040000000	the current trend
0.1040000000	the art alternatives
0.1040000000	the art fully
0.1040000000	the art networks
0.1040000000	the art cnn
0.1040000000	the art recurrent
0.1040000000	the art learning
0.1040000000	the art classifiers
0.1040000000	the art visual
0.1040000000	the art supervised
0.1040000000	the art baseline
0.1040000000	the art accuracies
0.1040000000	the art solutions
0.1040000000	the art result
0.1040000000	the art graph
0.1040000000	the art distributed
0.1040000000	the art technique
0.1040000000	the art online
0.1040000000	the art denoising
0.1040000000	the art solvers
0.1040000000	on object detection
0.1040000000	the art works
0.1040000000	for domain specific
0.1040000000	from https github.com
0.1040000000	from information theory
0.1040000000	for vision based
0.1040000000	from deep learning
0.1040000000	on line learning
0.1040000000	from noisy observations
0.1040000000	second order information
0.1040000000	show significant improvements
0.1040000000	other deep learning
0.1040000000	generalize across
0.1040000000	user needs
0.1040000000	appropriate choice
0.1040000000	failing to
0.1040000000	invention of
0.1040000000	dsc of
0.1040000000	several shortcomings
0.1040000000	s to
0.1040000000	geometric mean
0.1040000000	diagnostic system
0.1040000000	eigenfunctions of
0.1040000000	turn allows
0.1040000000	essential part
0.1040000000	minimum mean
0.1040000000	diagnosed with
0.1040000000	accurate enough
0.1040000000	analyst to
0.1040000000	involvement of
0.1040000000	cuhk03 and
0.1040000000	escape from
0.1040000000	improving upon
0.1040000000	delivered by
0.1040000000	preferred over
0.1040000000	attending to
0.1040000000	edition of
0.1040000000	affinity between
0.1040000000	sharpness of
0.1040000000	obtains better
0.1040000000	intuitive way
0.1040000000	fundamentals of
0.1040000000	switching between
0.1040000000	reported here
0.1040000000	missed by
0.1040000000	mutation only
0.1040000000	evolved over
0.1040000000	commonalities and
0.1040000000	author s
0.1040000000	hosted on
0.1040000000	distributions p
0.1040000000	buy and
0.1040000000	fast enough
0.1040000000	of use
0.1040000000	eigendecomposition of
0.1040000000	of cyclists
0.1040000000	partial least
0.1040000000	fractions of
0.1040000000	intends to
0.1040000000	mined from
0.1040000000	begun to
0.1040000000	revolution in
0.1040000000	determinant of
0.1040000000	achievement of
0.1040000000	sorts of
0.1040000000	dependencies across
0.1040000000	inliers and
0.1040000000	analogy between
0.1040000000	to isolate
0.1040000000	yield good
0.1040000000	answered by
0.1040000000	differences across
0.1040000000	albedo and
0.1040000000	systematic way
0.1040000000	supplied by
0.1040000000	allocated to
0.1040000000	provision of
0.1040000000	guideline for
0.1040000000	writing system
0.1040000000	errors made
0.1040000000	combined together
0.1040000000	requires little
0.1040000000	extremely useful
0.1040000000	proximity between
0.1040000000	exclusion of
0.1040000000	tandem with
0.1040000000	fddb and
0.1040000000	magnitude less
0.1040000000	mappings between
0.1040000000	extracting useful
0.1040000000	considerably better
0.1040000000	subroutine in
0.1040000000	drastically different
0.1040000000	well accepted
0.1040000000	advances made
0.1040000000	modulated by
0.1040000000	diversity among
0.1040000000	encouraged to
0.1040000000	illustrated through
0.1040000000	translate into
0.1040000000	length n
0.1040000000	propensity to
0.1040000000	organized into
0.1040000000	in reducing
0.1040000000	favourably with
0.1040000000	tradition of
0.1030000000	a wide variety of tasks
0.1030000000	a large number of parameters
0.1030000000	a large number of variables
0.1030000000	a large number of images
0.1030000000	use of convolutional neural networks
0.1030000000	an order of magnitude larger
0.1030000000	a wide range of tasks
0.1030000000	used in natural language processing
0.1030000000	a wide range of problems
0.1030000000	a wide variety of problems
0.1030000000	for many real world applications
0.1030000000	with synthetic and real data
0.1030000000	the end to end training
0.1030000000	much attention in recent years
0.1030000000	a small number of training
0.1030000000	both synthetic and real images
0.1030000000	for end to end training
0.1030000000	an end to end framework
0.1030000000	an end to end learning
0.1030000000	an end to end training
0.1030000000	an end to end neural
0.1030000000	an end to end approach
0.1030000000	an end to end network
0.1030000000	tested against
0.1030000000	comprises two
0.1030000000	subgroup of
0.1030000000	credibility of
0.1030000000	halpern and
0.1030000000	pronouns and
0.1030000000	categorized as
0.1030000000	avenue for
0.1030000000	resemblance to
0.1030000000	stations and
0.1030000000	question whether
0.1030000000	steps towards
0.1030000000	into disjoint
0.1030000000	as expected
0.1030000000	two levels
0.1030000000	steps i
0.1030000000	enforced by
0.1030000000	p hard
0.1030000000	estimated value
0.1030000000	employment of
0.1030000000	quite limited
0.1030000000	minimum value
0.1030000000	assumptions made
0.1030000000	improvement upon
0.1030000000	for new
0.1030000000	suffices to
0.1030000000	cast into
0.1030000000	generalized mean
0.1030000000	workings of
0.1030000000	quest for
0.1030000000	derives from
0.1030000000	contrasts with
0.1030000000	competitiveness of
0.1030000000	the adni
0.1030000000	the basal
0.1030000000	certain situations
0.1030000000	provides valuable
0.1030000000	the icub
0.1030000000	the interdependence
0.1030000000	the encoded
0.1030000000	the darpa
0.1030000000	em like
0.1030000000	another contribution
0.1030000000	absent from
0.1030000000	suffice to
0.1030000000	information concerning
0.1030000000	targeted at
0.1030000000	facilitate further
0.1030000000	vicinity of
0.1030000000	of 50
0.1030000000	finds better
0.1030000000	chances of
0.1030000000	react to
0.1030000000	very encouraging
0.1030000000	realism of
0.1030000000	embedded within
0.1030000000	held at
0.1030000000	4 times
0.1030000000	emerges from
0.1030000000	justifications for
0.1030000000	journals and
0.1030000000	representatives of
0.1030000000	breadth of
0.1030000000	nodules in
0.1030000000	insight about
0.1030000000	pronounced in
0.1030000000	pose changes
0.1030000000	include i
0.1030000000	takes less
0.1030000000	pertinent to
0.1030000000	sake of
0.1030000000	explore whether
0.1030000000	to factorize
0.1030000000	give insights
0.1030000000	these principles
0.1030000000	speaker s
0.1030000000	these processes
0.1030000000	truth value
0.1030000000	outperformed other
0.1030000000	favour of
0.1030000000	naturalness of
0.1030000000	supplied with
0.1030000000	chunks of
0.1030000000	interpretable way
0.1030000000	by concatenating
0.1030000000	further enhance
0.1030000000	by initializing
0.1030000000	at semeval
0.1030000000	at home
0.1030000000	further introduce
0.1030000000	benchmarked on
0.1030000000	conflict between
0.1030000000	waiting for
0.1030000000	incentive to
0.1030000000	and define
0.1030000000	ranked first
0.1030000000	informative about
0.1030000000	with rich
0.1030000000	and small
0.1030000000	fused into
0.1030000000	connections among
0.1030000000	discriminability of
0.1030000000	summarized as
0.1030000000	tightness of
0.1030000000	four categories
0.1030000000	under heavy
0.1030000000	increasing amount
0.1030000000	or alternatively
0.1030000000	opens new
0.1030000000	discussed here
0.1030000000	a factored
0.1030000000	optimism in
0.1030000000	like structures
0.1030000000	favourably to
0.1030000000	crowdsourcing system
0.1030000000	barriers to
0.1030000000	ubiquity of
0.1030000000	manifested in
0.1020000000	problem in computer vision and
0.1020000000	data as well as on
0.1020000000	with probability at least 1
0.1020000000	tasks as well as
0.1020000000	end to end way
0.1020000000	end to end with
0.1020000000	end to end system
0.1020000000	end to end from
0.1020000000	end to end in
0.1020000000	representations as well as
0.1020000000	end to end and
0.1020000000	performance as well as
0.1020000000	point of view of
0.1020000000	performance as compared to
0.1020000000	characterized in terms of
0.1020000000	end to end by
0.1020000000	significantly more accurate than
0.1020000000	networks as well as
0.1020000000	algorithm with respect to
0.1020000000	method in comparison with
0.1020000000	performance over state of
0.1020000000	images as well as
0.1020000000	problem as well as
0.1020000000	performs as well as
0.1020000000	point of view and
0.1020000000	end to end using
0.1020000000	approaches in terms of
0.1020000000	perform as well as
0.1020000000	commonly referred to as
0.1020000000	end to end without
0.1020000000	end to end on
0.1020000000	features in order to
0.1020000000	space as well as
0.1020000000	method for real time
0.1020000000	algorithm in terms of
0.1020000000	respect to state of
0.1020000000	approach for real time
0.1020000000	evaluated in terms of
0.1020000000	runs in real time
0.1020000000	performs better than other
0.1020000000	rate of convergence of
0.1020000000	algorithms as well as
0.1020000000	measured with respect to
0.1020000000	methods as well as
0.1020000000	learning methods such as
0.1020000000	ability to deal with
0.1020000000	tradeoff between accuracy and
0.1020000000	short period of time
0.1020000000	efficiency and accuracy of
0.1020000000	nlp applications such as
0.1020000000	optimal in terms of
0.1020000000	compared in terms of
0.1020000000	optimization problems such as
0.1020000000	measured in terms of
0.1020000000	features as well as
0.1020000000	proposed to deal with
0.1020000000	learning approaches such as
0.1020000000	performs on par with
0.1020000000	practical applications such as
0.1020000000	remains challenging due to
0.1020000000	approaches as well as
0.1020000000	bound with respect to
0.1020000000	learning models such as
0.1020000000	performance in comparison with
0.1020000000	invariant with respect to
0.1020000000	model with respect to
0.1020000000	performance in comparison to
0.1020000000	set of features for
0.1020000000	vision problems such as
0.1020000000	ability to learn from
0.1020000000	approach consists of two
0.1020000000	method as well as
0.1020000000	successfully applied to many
0.1020000000	results with respect to
0.1020000000	task as well as
0.1020000000	network for real time
0.1020000000	performance in terms of
0.1020000000	results on mnist and
0.1020000000	method with respect to
0.1020000000	analysis as well as
0.1020000000	classification tasks such as
0.1020000000	order of magnitude in
0.1020000000	formulated in terms of
0.1020000000	extensive experiments on four
0.1020000000	extensive experiments on two
0.1020000000	extensive experiments on several
0.1020000000	problem in terms of
0.1020000000	the performance of different
0.1020000000	extensive experiments on various
0.1020000000	experiments on two different
0.1020000000	results in comparison to
0.1020000000	systems in terms of
0.1020000000	the proposed framework to
0.1020000000	person re identification and
0.1020000000	regions as well as
0.1020000000	images in order to
0.1020000000	objects as well as
0.1020000000	performance with respect to
0.1020000000	extensive experiments on three
0.1020000000	techniques as well as
0.1020000000	regret with respect to
0.1020000000	results in terms of
0.1020000000	experiments on real and
0.1020000000	robust with respect to
0.1020000000	propose two methods for
0.1020000000	accuracy as well as
0.1020000000	run in real time
0.1020000000	approach in terms of
0.1020000000	function as well as
0.1020000000	method over state of
0.1020000000	critical applications such as
0.1020000000	performance compared with other
0.1020000000	problems as well as
0.1020000000	algorithms with respect to
0.1020000000	processing tasks such as
0.1020000000	faster r cnn and
0.1020000000	models in order to
0.1020000000	methods in order to
0.1020000000	examples as well as
0.1020000000	competitive in terms of
0.1020000000	recognition as well as
0.1020000000	approach in order to
0.1020000000	complex tasks such as
0.1020000000	performance with state of
0.1020000000	algorithms in order to
0.1020000000	method makes use of
0.1020000000	search algorithms such as
0.1020000000	order to achieve good
0.1020000000	algorithm as well as
0.1020000000	order to deal with
0.1020000000	number of parameters in
0.1020000000	number of parameters to
0.1020000000	number of variables and
0.1020000000	number of samples and
0.1020000000	method to deal with
0.1020000000	existing methods such as
0.1020000000	design and analysis of
0.1020000000	advantages in terms of
0.1020000000	learning algorithms such as
0.1020000000	experimental results on four
0.1020000000	precision and recall of
0.1020000000	models with respect to
0.1020000000	experimental results on various
0.1020000000	vision tasks such as
0.1020000000	art in terms of
0.1020000000	efficient in terms of
0.1020000000	parameters as well as
0.1020000000	experimental results on three
0.1020000000	systems as well as
0.1020000000	accuracy in terms of
0.1020000000	neural networks as well
0.1020000000	nlp tasks such as
0.1020000000	baselines in terms of
0.1020000000	important role in many
0.1020000000	accuracy and robustness of
0.1020000000	sets as well as
0.1020000000	number of iterations and
0.1020000000	application domains such as
0.1020000000	number of clusters and
0.1020000000	defined with respect to
0.1020000000	improvement in terms of
0.1020000000	par with state of
0.1020000000	algorithms in terms of
0.1020000000	learning problems such as
0.1020000000	images in terms of
0.1020000000	models in terms of
0.1020000000	for unsupervised learning of
0.1020000000	results as well as
0.1020000000	function with respect to
0.1020000000	techniques in terms of
0.1020000000	method in terms of
0.1020000000	method performs better than
0.1020000000	order to do so
0.1020000000	publicly available dataset of
0.1020000000	recognition system based on
0.1020000000	orders of magnitude less
0.1020000000	orders of magnitude more
0.1020000000	proposed method not only
0.1020000000	outperform other state of
0.1020000000	models as well as
0.1020000000	datasets as well as
0.1020000000	orders of magnitude in
0.1020000000	optimal with respect to
0.1020000000	methods with respect to
0.1020000000	effectiveness and robustness of
0.1020000000	functions as well as
0.1020000000	needed in order to
0.1020000000	model as well as
0.1020000000	learning for real time
0.1020000000	interpreted in terms of
0.1020000000	approach to deal with
0.1020000000	problem as one of
0.1020000000	methods to deal with
0.1020000000	widely used in many
0.1020000000	learning tasks such as
0.1020000000	complexity o n
0.1020000000	accuracy but also
0.1020000000	and representation of
0.1020000000	complexity due to
0.1020000000	method to find
0.1020000000	distributions such as
0.1020000000	close to one
0.1020000000	close as possible
0.1020000000	cues such as
0.1020000000	analysis of different
0.1020000000	propose to first
0.1020000000	problem and use
0.1020000000	vary over time
0.1020000000	favorably to other
0.1020000000	decisions made by
0.1020000000	method for using
0.1020000000	data by using
0.1020000000	perform well for
0.1020000000	environments such as
0.1020000000	directly used to
0.1020000000	carried out using
0.1020000000	selected according to
0.1020000000	suitable for use
0.1020000000	increasingly used in
0.1020000000	limited due to
0.1020000000	variables corresponding to
0.1020000000	analysis of such
0.1020000000	rules such as
0.1020000000	operations such as
0.1020000000	evaluation of various
0.1020000000	method to two
0.1020000000	problem into two
0.1020000000	difficult due to
0.1020000000	services such as
0.1020000000	expressive enough to
0.1020000000	analysis of two
0.1020000000	trade off in
0.1020000000	comparison between different
0.1020000000	types such as
0.1020000000	close to zero
0.1020000000	problem and show
0.1020000000	faster and more
0.1020000000	evaluation of different
0.1020000000	freely available at
0.1020000000	learning but also
0.1020000000	strategies such as
0.1020000000	benefits of using
0.1020000000	existing work on
0.1020000000	focus on using
0.1020000000	polynomial time and
0.1020000000	focus on one
0.1020000000	focus on two
0.1020000000	focus on different
0.1020000000	algorithm such as
0.1020000000	assumptions such as
0.1020000000	difficult because of
0.1020000000	processing such as
0.1020000000	polynomial time in
0.1020000000	execution time of
0.1020000000	trained with only
0.1020000000	present two novel
0.1020000000	representations such as
0.1020000000	platforms such as
0.1020000000	arises due to
0.1020000000	effect of using
0.1020000000	space of possible
0.1020000000	runs in o
0.1020000000	lead to better
0.1020000000	lead to more
0.1020000000	propose two different
0.1020000000	propose two novel
0.1020000000	leading cause of
0.1020000000	method on two
0.1020000000	resulting in more
0.1020000000	effects of different
0.1020000000	images due to
0.1020000000	method on three
0.1020000000	sets and show
0.1020000000	method used to
0.1020000000	method used in
0.1020000000	consist of two
0.1020000000	data to show
0.1020000000	obtained by using
0.1020000000	data available in
0.1020000000	addition of new
0.1020000000	application of such
0.1020000000	applied in many
0.1020000000	attributes such as
0.1020000000	activities such as
0.1020000000	algorithms do not
0.1020000000	approach to find
0.1020000000	commonly used for
0.1020000000	methods used in
0.1020000000	benchmarks such as
0.1020000000	approach on three
0.1020000000	approach on two
0.1020000000	evaluations on several
0.1020000000	phenomena such as
0.1020000000	accuracy of over
0.1020000000	method on several
0.1020000000	lead to new
0.1020000000	systems do not
0.1020000000	distributed according to
0.1020000000	propose two new
0.1020000000	images from different
0.1020000000	model and to
0.1020000000	performing better than
0.1020000000	method not only
0.1020000000	data along with
0.1020000000	methods to find
0.1020000000	creation of new
0.1020000000	space such as
0.1020000000	small changes in
0.1020000000	attention due to
0.1020000000	information available to
0.1020000000	processes such as
0.1020000000	runs in time
0.1020000000	arise in many
0.1020000000	solved by using
0.1020000000	predictions made by
0.1020000000	small enough to
0.1020000000	proposed so far
0.1020000000	progress made in
0.1020000000	method used for
0.1020000000	vast amount of
0.1020000000	relation between two
0.1020000000	lot of time
0.1020000000	huge amount of
0.1020000000	arise due to
0.1020000000	relative to other
0.1020000000	model and show
0.1020000000	approach on several
0.1020000000	data available for
0.1020000000	popular due to
0.1020000000	problems associated with
0.1020000000	methods used for
0.1020000000	uncertainty associated with
0.1020000000	learning in particular
0.1020000000	contrast to other
0.1020000000	slightly better than
0.1020000000	methods and show
0.1020000000	algorithms for such
0.1020000000	components such as
0.1020000000	information available in
0.1020000000	simpler and more
0.1020000000	algorithms for non
0.1020000000	quantities such as
0.1020000000	popularity due to
0.1020000000	framework on two
0.1020000000	applications as well
0.1020000000	model and then
0.1020000000	evaluated on two
0.1020000000	evaluated on three
0.1020000000	evaluated on several
0.1020000000	evaluated on four
0.1020000000	processing and computer
0.1020000000	accuracy of about
0.1020000000	accuracy and time
0.1020000000	methods but also
0.1020000000	path between two
0.1020000000	results in more
0.1020000000	tremendous amount of
0.1020000000	role in many
0.1020000000	analysis and to
0.1020000000	level rather than
0.1020000000	task for many
0.1020000000	richer and more
0.1020000000	results in various
0.1020000000	combined with other
0.1020000000	effectiveness of different
0.1020000000	diseases such as
0.1020000000	deal with such
0.1020000000	challenge due to
0.1020000000	experiments on different
0.1020000000	problem by using
0.1020000000	allowing one to
0.1020000000	features and then
0.1020000000	signals such as
0.1020000000	problem of interest
0.1020000000	performed by using
0.1020000000	analysis such as
0.1020000000	belonging to different
0.1020000000	comparing to other
0.1020000000	model on three
0.1020000000	problem of using
0.1020000000	features along with
0.1020000000	potential of using
0.1020000000	relations between two
0.1020000000	readily available for
0.1020000000	cases of interest
0.1020000000	art on several
0.1020000000	the capability to
0.1020000000	a system of
0.1020000000	recognition system with
0.1020000000	product of two
0.1020000000	collected from different
0.1020000000	experiments on six
0.1020000000	structure such as
0.1020000000	recognition system for
0.1020000000	groups of people
0.1020000000	experiments on four
0.1020000000	experiments on five
0.1020000000	the characterization of
0.1020000000	the objective and
0.1020000000	results in better
0.1020000000	recognition system using
0.1020000000	comparing with other
0.1020000000	classifiers such as
0.1020000000	hard to find
0.1020000000	great interest in
0.1020000000	weights associated with
0.1020000000	commonly known as
0.1020000000	widespread use of
0.1020000000	model on two
0.1020000000	direct use of
0.1020000000	suffers from two
0.1020000000	influence of different
0.1020000000	applications due to
0.1020000000	problems due to
0.1020000000	cost associated with
0.1020000000	information from different
0.1020000000	methods in particular
0.1020000000	success of such
0.1020000000	disciplines such as
0.1020000000	terms of two
0.1020000000	data due to
0.1020000000	recently due to
0.1020000000	important for many
0.1020000000	procedures such as
0.1020000000	data and thus
0.1020000000	methods do not
0.1020000000	complexity of o
0.1020000000	number of different
0.1020000000	operators such as
0.1020000000	data such as
0.1020000000	tested on several
0.1020000000	relationships between different
0.1020000000	terms of mean
0.1020000000	number of possible
0.1020000000	publicly available to
0.1020000000	task because of
0.1020000000	challenges associated with
0.1020000000	actions such as
0.1020000000	performed on two
0.1020000000	sufficient amount of
0.1020000000	transformations such as
0.1020000000	data does not
0.1020000000	order to help
0.1020000000	tasks due to
0.1020000000	leads to more
0.1020000000	data and use
0.1020000000	component of many
0.1020000000	data and then
0.1020000000	limitations such as
0.1020000000	data in many
0.1020000000	speed up in
0.1020000000	extracted from different
0.1020000000	object and part
0.1020000000	composed of three
0.1020000000	success in many
0.1020000000	order to further
0.1020000000	number of people
0.1020000000	baselines such as
0.1020000000	composed of two
0.1020000000	training time of
0.1020000000	dataset with more
0.1020000000	dataset with over
0.1020000000	order to take
0.1020000000	ell 1 and
0.1020000000	data and show
0.1020000000	methods both in
0.1020000000	step in many
0.1020000000	based system for
0.1020000000	training time and
0.1020000000	terms of time
0.1020000000	publicly available for
0.1020000000	compare two different
0.1020000000	relationship between two
0.1020000000	language such as
0.1020000000	superior to other
0.1020000000	difficult to use
0.1020000000	difficult to find
0.1020000000	order to show
0.1020000000	number of new
0.1020000000	number of time
0.1020000000	number of such
0.1020000000	number of available
0.1020000000	number of other
0.1020000000	from data in
0.1020000000	examples of such
0.1020000000	on state of
0.1020000000	frequently used in
0.1020000000	order to get
0.1020000000	order to better
0.1020000000	order to do
0.1020000000	order to allow
0.1020000000	network such as
0.1020000000	impact of various
0.1020000000	schemes such as
0.1020000000	speed up of
0.1020000000	sensors such as
0.1020000000	tested on three
0.1020000000	tested on two
0.1020000000	effective use of
0.1020000000	classification as well
0.1020000000	level of detail
0.1020000000	tight up to
0.1020000000	adapt to new
0.1020000000	networks and show
0.1020000000	primarily due to
0.1020000000	successfully used in
0.1020000000	method with two
0.1020000000	networks such as
0.1020000000	renewed interest in
0.1020000000	successfully used to
0.1020000000	advances in computer
0.1020000000	method allows to
0.1020000000	situations such as
0.1020000000	method and show
0.1020000000	setting as well
0.1020000000	extensively used to
0.1020000000	focus only on
0.1020000000	function associated with
0.1020000000	analysis to show
0.1020000000	run time of
0.1020000000	extensively used in
0.1020000000	notions such as
0.1020000000	solutions such as
0.1020000000	run time and
0.1020000000	consisting of two
0.1020000000	adapt to different
0.1020000000	consisting of several
0.1020000000	consisting of over
0.1020000000	consisting of three
0.1020000000	feasibility of using
0.1020000000	the other one
0.1020000000	performance over other
0.1020000000	widely used to
0.1020000000	widely used as
0.1020000000	widely used and
0.1020000000	successfully used for
0.1020000000	set of possible
0.1020000000	set of such
0.1020000000	compared to using
0.1020000000	set of k
0.1020000000	framework does not
0.1020000000	significantly different from
0.1020000000	compared to several
0.1020000000	compared to more
0.1020000000	generalize better than
0.1020000000	effective way of
0.1020000000	datasets from different
0.1020000000	correspond to different
0.1020000000	substantial amount of
0.1020000000	robust enough to
0.1020000000	functions such as
0.1020000000	comparable to or
0.1020000000	comparable or even
0.1020000000	concepts such as
0.1020000000	data used for
0.1020000000	significant interest in
0.1020000000	behaviors such as
0.1020000000	consists of several
0.1020000000	data used in
0.1020000000	advantages of using
0.1020000000	significant amount of
0.1020000000	models do not
0.1020000000	results but also
0.1020000000	recent work by
0.1020000000	recent work of
0.1020000000	approaches on several
0.1020000000	comparison to other
0.1020000000	known results for
0.1020000000	real time with
0.1020000000	variety of different
0.1020000000	previous work by
0.1020000000	field as well
0.1020000000	robust to changes
0.1020000000	benefit of using
0.1020000000	for data with
0.1020000000	efficient use of
0.1020000000	evolve over time
0.1020000000	information due to
0.1020000000	real time and
0.1020000000	coming from different
0.1020000000	comparison of two
0.1020000000	layers followed by
0.1020000000	computation time and
0.1020000000	learning system for
0.1020000000	recent interest in
0.1020000000	relies only on
0.1020000000	real time by
0.1020000000	artifacts such as
0.1020000000	presented to show
0.1020000000	real time on
0.1020000000	consists of three
0.1020000000	the test time
0.1020000000	typically used in
0.1020000000	consists of four
0.1020000000	information as possible
0.1020000000	over time by
0.1020000000	comparison with other
0.1020000000	assumption does not
0.1020000000	setting and show
0.1020000000	parameters such as
0.1020000000	results of several
0.1020000000	quantity of interest
0.1020000000	occurs in many
0.1020000000	considered one of
0.1020000000	previous work in
0.1020000000	previous work and
0.1020000000	datasets such as
0.1020000000	entities such as
0.1020000000	distribution instead of
0.1020000000	extensive use of
0.1020000000	framework and show
0.1020000000	basis for further
0.1020000000	prior work in
0.1020000000	natural way of
0.1020000000	performance but also
0.1020000000	model such as
0.1020000000	models and show
0.1020000000	model with two
0.1020000000	models due to
0.1020000000	comparison of different
0.1020000000	generated according to
0.1020000000	depending on whether
0.1020000000	based on new
0.1020000000	based on using
0.1020000000	based on one
0.1020000000	based on three
0.1020000000	based on such
0.1020000000	based on only
0.1020000000	formalisms such as
0.1020000000	data but also
0.1020000000	extended to other
0.1020000000	based on k
0.1020000000	evaluation on two
0.1020000000	proposes to use
0.1020000000	objects such as
0.1020000000	based on computer
0.1020000000	solvers such as
0.1020000000	events such as
0.1020000000	approaches do not
0.1020000000	practice due to
0.1020000000	data from different
0.1020000000	properties such as
0.1020000000	problem in computer
0.1020000000	application such as
0.1020000000	function of time
0.1020000000	based on both
0.1020000000	media such as
0.1020000000	words such as
0.1020000000	observations such as
0.1020000000	functions used in
0.1020000000	based on non
0.1020000000	idea of using
0.1020000000	of elements in
0.1020000000	based on different
0.1020000000	based on first
0.1020000000	increasing interest in
0.1020000000	evaluation on several
0.1020000000	of data from
0.1020000000	space and then
0.1020000000	problem in many
0.1020000000	tools such as
0.1020000000	variations such as
0.1020000000	problem associated with
0.1020000000	conditions such as
0.1020000000	frameworks such as
0.1020000000	settings such as
0.1020000000	problem known as
0.1020000000	variables of interest
0.1020000000	results also show
0.1020000000	limited amount of
0.1020000000	variations due to
0.1020000000	issues associated with
0.1020000000	based on several
0.1020000000	features of different
0.1020000000	based on self
0.1020000000	task and show
0.1020000000	rate up to
0.1020000000	systems due to
0.1020000000	group of people
0.1020000000	model allows for
0.1020000000	model not only
0.1020000000	results do not
0.1020000000	properties of such
0.1020000000	sources such as
0.1020000000	algorithms used in
0.1020000000	aim to find
0.1020000000	datasets used in
0.1020000000	future work in
0.1020000000	model used in
0.1020000000	problems and show
0.1020000000	questions such as
0.1020000000	transferred to other
0.1020000000	features used in
0.1020000000	combination of two
0.1020000000	method such as
0.1020000000	fundamentally different from
0.1020000000	guaranteed to find
0.1020000000	performance of many
0.1020000000	substantially better than
0.1020000000	cases such as
0.1020000000	experiments also show
0.1020000000	mechanisms such as
0.1020000000	features associated with
0.1020000000	features from different
0.1020000000	features at different
0.1020000000	massive amount of
0.1020000000	combination of several
0.1020000000	in estimation of
0.1020000000	leading to better
0.1020000000	development of new
0.1020000000	performance than other
0.1020000000	algorithm not only
0.1020000000	suffer from two
0.1020000000	problem such as
0.1020000000	features corresponding to
0.1020000000	image and then
0.1020000000	ability to find
0.1020000000	object of interest
0.1020000000	documents such as
0.1020000000	models on two
0.1020000000	millions of people
0.1020000000	costs associated with
0.1020000000	function such as
0.1020000000	models need to
0.1020000000	problem for many
0.1020000000	important part of
0.1020000000	techniques used in
0.1020000000	experiment with different
0.1020000000	flexible enough to
0.1020000000	leading to more
0.1020000000	images of different
0.1020000000	approach in two
0.1020000000	important in many
0.1020000000	modalities such as
0.1020000000	increased interest in
0.1020000000	performance of several
0.1020000000	development of such
0.1020000000	advantage of using
0.1020000000	advantage of such
0.1020000000	techniques used for
0.1020000000	results from different
0.1020000000	performance of three
0.1020000000	performance due to
0.1020000000	framework allows for
0.1020000000	framework not only
0.1020000000	performance of various
0.1020000000	performance across different
0.1020000000	ability to make
0.1020000000	ability to use
0.1020000000	combination of different
0.1020000000	models by using
0.1020000000	arises in many
0.1020000000	inputs such as
0.1020000000	categories such as
0.1020000000	larger and more
0.1020000000	criteria such as
0.1020000000	images and show
0.1020000000	growing interest in
0.1020000000	demonstrated on several
0.1020000000	features but also
0.1020000000	algorithm to find
0.1020000000	approach does not
0.1020000000	computational time and
0.1020000000	performance on various
0.1020000000	linear time in
0.1020000000	shown to work
0.1020000000	approach not only
0.1020000000	performs at least
0.1020000000	images and then
0.1020000000	features for different
0.1020000000	experiments with two
0.1020000000	experiments and show
0.1020000000	tasks and show
0.1020000000	area of interest
0.1020000000	classes such as
0.1020000000	techniques do not
0.1020000000	potential use of
0.1020000000	spaces such as
0.1020000000	occur due to
0.1020000000	crucial part of
0.1020000000	applicable to many
0.1020000000	optimal up to
0.1020000000	linear time with
0.1020000000	attempts to find
0.1020000000	results on three
0.1020000000	measures such as
0.1020000000	results on various
0.1020000000	methods need to
0.1020000000	large enough to
0.1020000000	belong to different
0.1020000000	demonstrated on two
0.1020000000	achieved by using
0.1020000000	task in many
0.1020000000	loss due to
0.1020000000	problem due to
0.1020000000	designed to work
0.1020000000	construction of such
0.1020000000	performance on two
0.1020000000	scenarios such as
0.1020000000	results on two
0.1020000000	ready to use
0.1020000000	works better than
0.1020000000	applications in many
0.1020000000	applicable to other
0.1020000000	improved by using
0.1020000000	task such as
0.1020000000	shown to give
0.1020000000	results on several
0.1020000000	algorithm on two
0.1020000000	considerable interest in
0.1020000000	results on both
0.1020000000	respect to other
0.1020000000	respect to different
0.1020000000	results on six
0.1020000000	challenging because of
0.1020000000	classified according to
0.1020000000	environment such as
0.1020000000	characteristics such as
0.1020000000	applications in various
0.1020000000	sets such as
0.1020000000	information associated with
0.1020000000	performance in various
0.1020000000	for reasoning with
0.1020000000	results on many
0.1020000000	results on four
0.1020000000	compared with several
0.1020000000	competitive with or
0.1020000000	competitive with other
0.1020000000	compared with two
0.1020000000	performance in many
0.1020000000	datasets with different
0.1020000000	performance by using
0.1020000000	performance on several
0.1020000000	performance on three
0.1020000000	performance on many
0.1020000000	technologies such as
0.1020000000	applications in computer
0.1020000000	algorithm does not
0.1020000000	algorithm for non
0.1020000000	algorithm on several
0.1020000000	similarity between different
0.1020000000	existence of such
0.1020000000	proposed to use
0.1020000000	methods on several
0.1020000000	algorithm known as
0.1020000000	resources such as
0.1020000000	method by using
0.1020000000	model by using
0.1020000000	bound of o
0.1020000000	proven useful in
0.1020000000	integral part of
0.1020000000	aspects such as
0.1020000000	applied to several
0.1020000000	comparisons with other
0.1020000000	methods on various
0.1020000000	approach allows for
0.1020000000	developed so far
0.1020000000	applied to different
0.1020000000	image according to
0.1020000000	divided into two
0.1020000000	images but also
0.1020000000	algorithms to find
0.1020000000	research as well
0.1020000000	applied to non
0.1020000000	conducted on several
0.1020000000	errors due to
0.1020000000	task due to
0.1020000000	networks do not
0.1020000000	applied to new
0.1020000000	networks but also
0.1020000000	models used in
0.1020000000	methods on two
0.1020000000	images according to
0.1020000000	images taken from
0.1020000000	images such as
0.1020000000	running time of
0.1020000000	images with different
0.1020000000	similarity between two
0.1020000000	applied to many
0.1020000000	applied to two
0.1020000000	task of interest
0.1020000000	algorithm by using
0.1020000000	running time and
0.1020000000	dataset and show
0.1020000000	range of possible
0.1020000000	experiments to show
0.1020000000	applied to various
0.1020000000	small amount of
0.1020000000	methods on four
0.1020000000	methods on three
0.1020000000	faster than other
0.1020000000	technique used in
0.1020000000	trained on one
0.1020000000	difference between two
0.1020000000	research interest in
0.1020000000	performed better than
0.1020000000	vision due to
0.1020000000	correlations between different
0.1020000000	commonly found in
0.1020000000	conducted on two
0.1020000000	conducted on three
0.1020000000	domain of interest
0.1020000000	results with other
0.1020000000	heuristics such as
0.1020000000	running time for
0.1020000000	variants such as
0.1020000000	points of interest
0.1020000000	accuracy due to
0.1020000000	divided into three
0.1020000000	samples according to
0.1020000000	knowledge such as
0.1020000000	behavior by
0.1020000000	hmms and
0.1020000000	symmetric and
0.1020000000	directed and
0.1020000000	bias for
0.1020000000	agent to
0.1020000000	explicit and
0.1020000000	failed to
0.1020000000	present for
0.1020000000	problems within
0.1020000000	english as
0.1020000000	limitations on
0.1020000000	limitations by
0.1020000000	limitations for
0.1020000000	direct and
0.1020000000	advanced and
0.1020000000	representations over
0.1020000000	algorithm while
0.1020000000	divided in
0.1020000000	replacement for
0.1020000000	corpus by
0.1020000000	perplexity and
0.1020000000	labels using
0.1020000000	congestion and
0.1020000000	correlation and
0.1020000000	baseline by
0.1020000000	baseline and
0.1020000000	baseline in
0.1020000000	baseline system
0.1020000000	improves as
0.1020000000	equilibria of
0.1020000000	defined at
0.1020000000	defined with
0.1020000000	defined to
0.1020000000	present different
0.1020000000	then aggregated
0.1020000000	sensors to
0.1020000000	years because
0.1020000000	individual s
0.1020000000	explicit in
0.1020000000	principles for
0.1020000000	identities and
0.1020000000	behavior with
0.1020000000	layer or
0.1020000000	layer s
0.1020000000	layer at
0.1020000000	codes by
0.1020000000	rarely used
0.1020000000	fixed but
0.1020000000	algorithm so
0.1020000000	coherence in
0.1020000000	algorithm at
0.1020000000	algorithm gives
0.1020000000	algorithm under
0.1020000000	algorithm against
0.1020000000	algorithm or
0.1020000000	algorithm also
0.1020000000	algorithm through
0.1020000000	algorithm via
0.1020000000	algorithm provides
0.1020000000	algorithm needs
0.1020000000	technologies for
0.1020000000	require many
0.1020000000	activation of
0.1020000000	jointly by
0.1020000000	recognition without
0.1020000000	stdp and
0.1020000000	spaces into
0.1020000000	spaces in
0.1020000000	learned over
0.1020000000	semantically and
0.1020000000	limitations and
0.1020000000	jointly using
0.1020000000	wide use
0.1020000000	wide and
0.1020000000	surface from
0.1020000000	surface to
0.1020000000	comparison using
0.1020000000	comparison among
0.1020000000	comparison for
0.1020000000	comparison against
0.1020000000	comparison on
0.1020000000	depth first
0.1020000000	learned for
0.1020000000	clinical use
0.1020000000	labels through
0.1020000000	labels on
0.1020000000	labels into
0.1020000000	labels but
0.1020000000	coherence and
0.1020000000	coco and
0.1020000000	clinical and
0.1020000000	spaces for
0.1020000000	separately and
0.1020000000	categories as
0.1020000000	categories from
0.1020000000	inputs by
0.1020000000	inputs from
0.1020000000	inputs of
0.1020000000	inputs as
0.1020000000	inputs for
0.1020000000	inputs with
0.1020000000	sentence with
0.1020000000	program into
0.1020000000	difficulty and
0.1020000000	objective value
0.1020000000	comparison and
0.1020000000	model via
0.1020000000	produce better
0.1020000000	cases with
0.1020000000	models make
0.1020000000	public available
0.1020000000	size without
0.1020000000	size as
0.1020000000	size in
0.1020000000	shared between
0.1020000000	representations at
0.1020000000	domains for
0.1020000000	summaries of
0.1020000000	fixed and
0.1020000000	fixed in
0.1020000000	representations via
0.1020000000	axiomatization for
0.1020000000	jointly and
0.1020000000	jointly in
0.1020000000	trajectory of
0.1020000000	involves using
0.1020000000	descriptors in
0.1020000000	size o
0.1020000000	size for
0.1020000000	superpixels to
0.1020000000	arises as
0.1020000000	difficulty to
0.1020000000	difficulty by
0.1020000000	resulting system
0.1020000000	difficulty for
0.1020000000	route to
0.1020000000	improve both
0.1020000000	apply and
0.1020000000	shared and
0.1020000000	codes with
0.1020000000	biased by
0.1020000000	sparse or
0.1020000000	environments for
0.1020000000	algorithm then
0.1020000000	behavior using
0.1020000000	behavior as
0.1020000000	years with
0.1020000000	goal by
0.1020000000	spaces to
0.1020000000	addresses two
0.1020000000	categories on
0.1020000000	behavior from
0.1020000000	platforms and
0.1020000000	platforms for
0.1020000000	platforms with
0.1020000000	integrate and
0.1020000000	free from
0.1020000000	base of
0.1020000000	desirable in
0.1020000000	desirable for
0.1020000000	recognition for
0.1020000000	dnns with
0.1020000000	functional and
0.1020000000	grammars for
0.1020000000	representations across
0.1020000000	free to
0.1020000000	naturally in
0.1020000000	spaces with
0.1020000000	applications especially
0.1020000000	recognition over
0.1020000000	integrated within
0.1020000000	naturally as
0.1020000000	walk on
0.1020000000	flexible than
0.1020000000	powerful but
0.1020000000	answer for
0.1020000000	relying only
0.1020000000	normalization and
0.1020000000	estimators of
0.1020000000	environments using
0.1020000000	transfer with
0.1020000000	snr of
0.1020000000	jointly to
0.1020000000	frames into
0.1020000000	frames from
0.1020000000	years but
0.1020000000	years and
0.1020000000	years in
0.1020000000	sparse with
0.1020000000	summaries from
0.1020000000	generalize and
0.1020000000	behavior on
0.1020000000	labels by
0.1020000000	labels as
0.1020000000	codes of
0.1020000000	acquire and
0.1020000000	defined through
0.1020000000	rapidly in
0.1020000000	rapidly and
0.1020000000	tested by
0.1020000000	web for
0.1020000000	spaces using
0.1020000000	require more
0.1020000000	require very
0.1020000000	require less
0.1020000000	require to
0.1020000000	require only
0.1020000000	technologies to
0.1020000000	compositionality of
0.1020000000	compositionality and
0.1020000000	adaptive in
0.1020000000	base in
0.1020000000	codes and
0.1020000000	base and
0.1020000000	base to
0.1020000000	future of
0.1020000000	base with
0.1020000000	base on
0.1020000000	majority and
0.1020000000	sparse in
0.1020000000	agnostic and
0.1020000000	algorithm namely
0.1020000000	applications namely
0.1020000000	applications particularly
0.1020000000	applications or
0.1020000000	applications by
0.1020000000	applications often
0.1020000000	applications however
0.1020000000	applications with
0.1020000000	applications because
0.1020000000	teams and
0.1020000000	refinement and
0.1020000000	recognition under
0.1020000000	algorithm over
0.1020000000	mobile and
0.1020000000	analytic and
0.1020000000	labels at
0.1020000000	activation and
0.1020000000	goal in
0.1020000000	technologies and
0.1020000000	technologies in
0.1020000000	integrated to
0.1020000000	applications on
0.1020000000	constraints between
0.1020000000	spaces such
0.1020000000	supports of
0.1020000000	architectures as
0.1020000000	architectures on
0.1020000000	architectures using
0.1020000000	architectures of
0.1020000000	architectures in
0.1020000000	architectures by
0.1020000000	customized to
0.1020000000	base for
0.1020000000	model non
0.1020000000	accuracy or
0.1020000000	models thus
0.1020000000	powerful than
0.1020000000	powerful in
0.1020000000	model needs
0.1020000000	separately for
0.1020000000	separately from
0.1020000000	models one
0.1020000000	cases to
0.1020000000	structured as
0.1020000000	model one
0.1020000000	baseline to
0.1020000000	estimators with
0.1020000000	objective using
0.1020000000	matrices by
0.1020000000	conduct several
0.1020000000	size or
0.1020000000	representations or
0.1020000000	representations as
0.1020000000	learned via
0.1020000000	recognition but
0.1020000000	recognition on
0.1020000000	higher and
0.1020000000	technical and
0.1020000000	pathways to
0.1020000000	tion of
0.1020000000	equivalent of
0.1020000000	future and
0.1020000000	gestures and
0.1020000000	cases as
0.1020000000	mechanism over
0.1020000000	performed and
0.1020000000	mechanism into
0.1020000000	cases but
0.1020000000	cases by
0.1020000000	locality and
0.1020000000	involves two
0.1020000000	behavior for
0.1020000000	produce very
0.1020000000	descriptors to
0.1020000000	separately on
0.1020000000	performed to
0.1020000000	domains by
0.1020000000	layer for
0.1020000000	learned to
0.1020000000	domains or
0.1020000000	corpus show
0.1020000000	challenging than
0.1020000000	problems namely
0.1020000000	challenging even
0.1020000000	accuracy using
0.1020000000	accuracy against
0.1020000000	accuracy as
0.1020000000	trajectory and
0.1020000000	recognition by
0.1020000000	accuracy across
0.1020000000	correlation to
0.1020000000	transfer from
0.1020000000	models into
0.1020000000	depth to
0.1020000000	transfer across
0.1020000000	multiplication of
0.1020000000	implementation to
0.1020000000	accuracy under
0.1020000000	domains of
0.1020000000	corpus using
0.1020000000	mechanism to
0.1020000000	representations using
0.1020000000	models over
0.1020000000	shows good
0.1020000000	representations to
0.1020000000	discovered from
0.1020000000	trained as
0.1020000000	models use
0.1020000000	models without
0.1020000000	applications using
0.1020000000	models especially
0.1020000000	agent system
0.1020000000	applications from
0.1020000000	sampling on
0.1020000000	models still
0.1020000000	models under
0.1020000000	models within
0.1020000000	answer in
0.1020000000	models against
0.1020000000	utilized as
0.1020000000	models like
0.1020000000	model both
0.1020000000	models namely
0.1020000000	answer and
0.1020000000	cases even
0.1020000000	sampling using
0.1020000000	interactions by
0.1020000000	similarly for
0.1020000000	interactions to
0.1020000000	nonlinear and
0.1020000000	model through
0.1020000000	insufficient to
0.1020000000	models show
0.1020000000	integrate into
0.1020000000	sampling with
0.1020000000	objective in
0.1020000000	measurement and
0.1020000000	accuracy even
0.1020000000	element in
0.1020000000	apply in
0.1020000000	implementation with
0.1020000000	preliminary work
0.1020000000	mechanism using
0.1020000000	models while
0.1020000000	prototype system
0.1020000000	accuracy especially
0.1020000000	decide to
0.1020000000	naturally to
0.1020000000	increased by
0.1020000000	accuracy from
0.1020000000	present day
0.1020000000	accuracy at
0.1020000000	models than
0.1020000000	accuracy but
0.1020000000	cases from
0.1020000000	increased in
0.1020000000	compute and
0.1020000000	shows better
0.1020000000	baseline with
0.1020000000	separately in
0.1020000000	model into
0.1020000000	bias of
0.1020000000	accuracy to
0.1020000000	size by
0.1020000000	model even
0.1020000000	evaluated to
0.1020000000	corpus with
0.1020000000	model while
0.1020000000	norm or
0.1020000000	transfer to
0.1020000000	model against
0.1020000000	model thus
0.1020000000	learned through
0.1020000000	window and
0.1020000000	locality of
0.1020000000	model within
0.1020000000	learned during
0.1020000000	vector as
0.1020000000	size d
0.1020000000	representations but
0.1020000000	flexible to
0.1020000000	iterations with
0.1020000000	adds to
0.1020000000	knowledge between
0.1020000000	model various
0.1020000000	representations by
0.1020000000	category in
0.1020000000	model contains
0.1020000000	sampling to
0.1020000000	produce good
0.1020000000	larger in
0.1020000000	representations while
0.1020000000	representations into
0.1020000000	stored and
0.1020000000	transfer and
0.1020000000	increased to
0.1020000000	cases and
0.1020000000	models usually
0.1020000000	model also
0.1020000000	tree with
0.1020000000	size to
0.1020000000	characterization and
0.1020000000	models more
0.1020000000	screening and
0.1020000000	samples into
0.1020000000	present work
0.1020000000	algorithm allows
0.1020000000	corpus from
0.1020000000	vector x
0.1020000000	synapses in
0.1020000000	variant to
0.1020000000	objective with
0.1020000000	user or
0.1020000000	interactions from
0.1020000000	models even
0.1020000000	models allow
0.1020000000	mechanism on
0.1020000000	size with
0.1020000000	models however
0.1020000000	matrices for
0.1020000000	problems on
0.1020000000	size on
0.1020000000	mechanism with
0.1020000000	naturally from
0.1020000000	normalization of
0.1020000000	implementation as
0.1020000000	word or
0.1020000000	car and
0.1020000000	problems or
0.1020000000	classifying and
0.1020000000	models via
0.1020000000	problems as
0.1020000000	representations on
0.1020000000	start to
0.1020000000	present or
0.1020000000	model than
0.1020000000	instructions for
0.1020000000	implementation using
0.1020000000	user with
0.1020000000	descriptors as
0.1020000000	starting to
0.1020000000	prototype and
0.1020000000	objective to
0.1020000000	accuracy without
0.1020000000	heterogeneous and
0.1020000000	model under
0.1020000000	accuracy through
0.1020000000	purely on
0.1020000000	domains using
0.1020000000	testing with
0.1020000000	ratio and
0.1020000000	model or
0.1020000000	formal and
0.1020000000	separately to
0.1020000000	free and
0.1020000000	years many
0.1020000000	computed over
0.1020000000	problems because
0.1020000000	model more
0.1020000000	cases for
0.1020000000	computed as
0.1020000000	model then
0.1020000000	descriptors from
0.1020000000	implementation on
0.1020000000	model without
0.1020000000	prototype for
0.1020000000	routing in
0.1020000000	agent for
0.1020000000	environments without
0.1020000000	objective for
0.1020000000	model first
0.1020000000	show and
0.1020000000	present novel
0.1020000000	models often
0.1020000000	vector using
0.1020000000	select and
0.1020000000	problems than
0.1020000000	baseline on
0.1020000000	estimators in
0.1020000000	learned as
0.1020000000	problems to
0.1020000000	anatomy of
0.1020000000	present such
0.1020000000	problems show
0.1020000000	present at
0.1020000000	present one
0.1020000000	models through
0.1020000000	challenging especially
0.1020000000	domains as
0.1020000000	problems into
0.1020000000	models also
0.1020000000	knowledge regarding
0.1020000000	feasible for
0.1020000000	word from
0.1020000000	model but
0.1020000000	irrelevant to
0.1020000000	model during
0.1020000000	solving for
0.1020000000	model namely
0.1020000000	solving many
0.1020000000	model not
0.1020000000	stored as
0.1020000000	processing to
0.1020000000	years to
0.1020000000	domains but
0.1020000000	energy of
0.1020000000	samples than
0.1020000000	models particularly
0.1020000000	sentence as
0.1020000000	improves by
0.1020000000	agent on
0.1020000000	corpus in
0.1020000000	individual or
0.1020000000	model gives
0.1020000000	entries for
0.1020000000	latency and
0.1020000000	integrated and
0.1020000000	powerful and
0.1020000000	biomarkers for
0.1020000000	improves with
0.1020000000	individual in
0.1020000000	mechanism and
0.1020000000	samples per
0.1020000000	problems however
0.1020000000	samples using
0.1020000000	problems by
0.1020000000	problems using
0.1020000000	problems over
0.1020000000	problems without
0.1020000000	problems under
0.1020000000	problems through
0.1020000000	media in
0.1020000000	problems often
0.1020000000	problems while
0.1020000000	problems since
0.1020000000	problems via
0.1020000000	evaluated through
0.1020000000	model different
0.1020000000	solving and
0.1020000000	solving two
0.1020000000	users of
0.1020000000	solving of
0.1020000000	naturally and
0.1020000000	flexible in
0.1020000000	duality of
0.1020000000	algorithm from
0.1020000000	constraints or
0.1020000000	corpus to
0.1020000000	mechanism by
0.1020000000	sampling over
0.1020000000	inputs in
0.1020000000	bounded from
0.1020000000	extensions for
0.1020000000	ratio between
0.1020000000	samples n
0.1020000000	processing or
0.1020000000	performed at
0.1020000000	processing using
0.1020000000	problems but
0.1020000000	processing system
0.1020000000	problems at
0.1020000000	phonetic and
0.1020000000	signals on
0.1020000000	word s
0.1020000000	optimizing for
0.1020000000	optimizing over
0.1020000000	labels or
0.1020000000	divided by
0.1020000000	processing with
0.1020000000	algorithm but
0.1020000000	mechanism in
0.1020000000	decide on
0.1020000000	transfer for
0.1020000000	knowledge through
0.1020000000	knowledge with
0.1020000000	knowledge or
0.1020000000	knowledge by
0.1020000000	size than
0.1020000000	knowledge across
0.1020000000	models both
0.1020000000	recognition as
0.1020000000	model allows
0.1020000000	emerged in
0.1020000000	expressive than
0.1020000000	challenging but
0.1020000000	recognition via
0.1020000000	recognition through
0.1020000000	domains without
0.1020000000	challenging in
0.1020000000	principles from
0.1020000000	domains show
0.1020000000	domains like
0.1020000000	domains while
0.1020000000	evaluated as
0.1020000000	processing for
0.1020000000	processing by
0.1020000000	computed and
0.1020000000	processing on
0.1020000000	processing as
0.1020000000	categories by
0.1020000000	transfer between
0.1020000000	measurement to
0.1020000000	guide for
0.1020000000	testing to
0.1020000000	goal for
0.1020000000	algorithm used
0.1020000000	moves in
0.1020000000	experimental work
0.1020000000	environments in
0.1020000000	applications as
0.1020000000	categories without
0.1020000000	applications but
0.1020000000	robotic system
0.1020000000	trained over
0.1020000000	trained via
0.1020000000	years several
0.1020000000	robot with
0.1020000000	kitti and
0.1020000000	generates more
0.1020000000	performed through
0.1020000000	primary and
0.1020000000	evaluated over
0.1020000000	size at
0.1020000000	evaluated for
0.1020000000	evaluated at
0.1020000000	samples but
0.1020000000	samples by
0.1020000000	exploration to
0.1020000000	samples as
0.1020000000	samples at
0.1020000000	knowledge available
0.1020000000	recognition or
0.1020000000	members and
0.1020000000	guarantee of
0.1020000000	testing time
0.1020000000	testing for
0.1020000000	testing in
0.1020000000	representations through
0.1020000000	degraded by
0.1020000000	learned without
0.1020000000	implementation for
0.1020000000	objective as
0.1020000000	models because
0.1020000000	prototype of
0.1020000000	users as
0.1020000000	users by
0.1020000000	users on
0.1020000000	users for
0.1020000000	users from
0.1020000000	screen and
0.1020000000	involves only
0.1020000000	performed over
0.1020000000	performed well
0.1020000000	discovered in
0.1020000000	solving various
0.1020000000	sensors in
0.1020000000	flexible way
0.1020000000	window of
0.1020000000	latency of
0.1020000000	computed at
0.1020000000	algorithm without
0.1020000000	software system
0.1020000000	categories for
0.1020000000	answer from
0.1020000000	improve and
0.1020000000	category and
0.1020000000	interactions of
0.1020000000	normalization for
0.1020000000	robot s
0.1020000000	defined using
0.1020000000	sampling or
0.1020000000	frames using
0.1020000000	vector by
0.1020000000	years as
0.1020000000	vector from
0.1020000000	vector with
0.1020000000	future for
0.1020000000	arm and
0.1020000000	frames for
0.1020000000	frames or
0.1020000000	frames as
0.1020000000	frames while
0.1020000000	frames with
0.1020000000	signals using
0.1020000000	signals for
0.1020000000	signals as
0.1020000000	purely from
0.1020000000	draw on
0.1020000000	computed via
0.1020000000	computed through
0.1020000000	width and
0.1020000000	constraints with
0.1020000000	shallow and
0.1020000000	appearances of
0.1020000000	gained by
0.1020000000	gained in
0.1020000000	synapses and
0.1020000000	observability and
0.1020000000	tree or
0.1020000000	tree for
0.1020000000	replacement of
0.1020000000	explosion in
0.1020000000	spike and
0.1020000000	biased and
0.1020000000	inspection and
0.1020000000	principles to
0.1020000000	principles in
0.1020000000	brains and
0.1020000000	convexity and
0.1020000000	regression using
0.1020000000	regression under
0.1020000000	regression via
0.1020000000	regression by
0.1020000000	modification to
0.1020000000	expressive and
0.1020000000	unbiased and
0.1020000000	aim for
0.1020000000	bias to
0.1020000000	bias or
0.1020000000	irrelevant and
0.1020000000	virtual and
0.1020000000	arm in
0.1020000000	spike time
0.1020000000	draw from
0.1020000000	unrelated to
0.1020000000	updating and
0.1020000000	updating of
0.1020000000	updating in
0.1020000000	axiomatization of
0.1020000000	guarantee and
0.1020000000	guarantee on
0.1020000000	guarantee in
0.1020000000	matter of
0.1020000000	social and
0.1020000000	bases for
0.1020000000	bases and
0.1020000000	bases of
0.1020000000	bases with
0.1020000000	bases to
0.1020000000	transcriptions of
0.1020000000	favorable for
0.1020000000	program for
0.1020000000	program with
0.1020000000	program in
0.1020000000	subgraphs of
0.1020000000	initializations and
0.1020000000	constraints for
0.1020000000	constraints as
0.1020000000	constraints into
0.1020000000	constraints using
0.1020000000	constraints over
0.1020000000	matrices to
0.1020000000	matrices or
0.1020000000	matrices from
0.1020000000	matrices using
0.1020000000	adaptively to
0.1020000000	identifies and
0.1020000000	motifs in
0.1020000000	guide to
0.1020000000	inspection of
0.1020000000	recover from
0.1020000000	forests and
0.1020000000	forests for
0.1020000000	proxy for
0.1020000000	proxy to
0.1020000000	proxy of
0.1020000000	inferred by
0.1020000000	iterations for
0.1020000000	iterations to
0.1020000000	iterations and
0.1020000000	equivalent and
0.1020000000	equivalent in
0.1020000000	feasible in
0.1020000000	feasible and
0.1020000000	feasible to
0.1020000000	homogeneous and
0.1020000000	simplification of
0.1020000000	hybridization of
0.1020000000	extensions and
0.1020000000	subsequently used
0.1020000000	check for
0.1020000000	start by
0.1020000000	start of
0.1020000000	mixed with
0.1020000000	navigate in
0.1020000000	mind and
0.1020000000	robustly and
0.1020000000	robustly in
0.1020000000	innovative and
0.1020000000	lexicons and
0.1020000000	lexicons for
0.1020000000	generality of
0.1020000000	generality and
0.1020000000	robot to
0.1020000000	robot using
0.1020000000	robot in
0.1020000000	utilized by
0.1020000000	entries and
0.1020000000	sensors on
0.1020000000	separability of
0.1020000000	cognition and
0.1020000000	screening of
0.1020000000	eye and
0.1020000000	boundary and
0.1020000000	boundary between
0.1020000000	enhancements to
0.1020000000	enhancements of
0.1020000000	ct using
0.1020000000	drawbacks in
0.1020000000	ratio for
0.1020000000	ratio in
0.1020000000	media and
0.1020000000	combinatorial and
0.1020000000	explosion of
0.1020000000	running in
0.1020000000	running at
0.1020000000	bounded in
0.1020000000	bounded and
0.1020000000	arithmetic and
0.1020000000	equilibria in
0.1020000000	public and
0.1020000000	category to
0.1020000000	proportions of
0.1020000000	collaboration and
0.1020000000	teams in
0.1020000000	consensus in
0.1020000000	consensus on
0.1020000000	coverage in
0.1020000000	ambiguous and
0.1020000000	speakers and
0.1020000000	speakers of
0.1020000000	appearances and
0.1020000000	vessels in
0.1020000000	vessels and
0.1020000000	richness of
0.1020000000	subgroups of
0.1020000000	byproduct of
0.1020000000	speed while
0.1020000000	speed in
0.1020000000	speed with
0.1020000000	outperforms several
0.1020000000	speed on
0.1020000000	manifold in
0.1020000000	predicting and
0.1020000000	psnr and
0.1020000000	schemes of
0.1020000000	schemes with
0.1020000000	schemes in
0.1020000000	schemes on
0.1020000000	faster in
0.1020000000	sequence in
0.1020000000	scale for
0.1020000000	mapping to
0.1020000000	policies to
0.1020000000	scale or
0.1020000000	faster on
0.1020000000	scale in
0.1020000000	person s
0.1020000000	gans in
0.1020000000	registration for
0.1020000000	rigid and
0.1020000000	point x
0.1020000000	generate better
0.1020000000	change as
0.1020000000	criterion to
0.1020000000	dependent and
0.1020000000	classified with
0.1020000000	classified and
0.1020000000	dual and
0.1020000000	overfitting to
0.1020000000	overfitting on
0.1020000000	overfitting in
0.1020000000	language use
0.1020000000	schemes and
0.1020000000	developers to
0.1020000000	entry to
0.1020000000	estimated through
0.1020000000	estimated on
0.1020000000	scale with
0.1020000000	dqn and
0.1020000000	registration to
0.1020000000	recommendations on
0.1020000000	recommendations and
0.1020000000	recommendations to
0.1020000000	protocol to
0.1020000000	pdf of
0.1020000000	practical to
0.1020000000	emotions from
0.1020000000	practical value
0.1020000000	practical for
0.1020000000	operator of
0.1020000000	auc of
0.1020000000	curve in
0.1020000000	curve of
0.1020000000	processes using
0.1020000000	probabilities as
0.1020000000	probabilities to
0.1020000000	manifold with
0.1020000000	prior or
0.1020000000	queries about
0.1020000000	overview on
0.1020000000	queries from
0.1020000000	linearly to
0.1020000000	compare various
0.1020000000	compare and
0.1020000000	points or
0.1020000000	recordings from
0.1020000000	impact and
0.1020000000	impact in
0.1020000000	taxonomy and
0.1020000000	validated and
0.1020000000	natural to
0.1020000000	mapping in
0.1020000000	ability for
0.1020000000	datasets used
0.1020000000	verification in
0.1020000000	prediction via
0.1020000000	faster at
0.1020000000	face with
0.1020000000	methodology in
0.1020000000	bounds under
0.1020000000	subjects with
0.1020000000	subjects in
0.1020000000	subjects and
0.1020000000	bounds with
0.1020000000	regret with
0.1020000000	variants for
0.1020000000	variants and
0.1020000000	subject or
0.1020000000	subject in
0.1020000000	subject s
0.1020000000	section of
0.1020000000	subject of
0.1020000000	subject and
0.1020000000	combination in
0.1020000000	successful for
0.1020000000	successful on
0.1020000000	tagging with
0.1020000000	prediction without
0.1020000000	points within
0.1020000000	points for
0.1020000000	points at
0.1020000000	observed and
0.1020000000	points by
0.1020000000	observed as
0.1020000000	frequently in
0.1020000000	concerns of
0.1020000000	compare with
0.1020000000	convex but
0.1020000000	case to
0.1020000000	points as
0.1020000000	network without
0.1020000000	schemes to
0.1020000000	datasets like
0.1020000000	rows of
0.1020000000	overfitting of
0.1020000000	performance at
0.1020000000	s in
0.1020000000	introduce in
0.1020000000	stuck in
0.1020000000	effort and
0.1020000000	observed with
0.1020000000	computation at
0.1020000000	probabilities or
0.1020000000	pixels or
0.1020000000	game between
0.1020000000	treebank and
0.1020000000	source for
0.1020000000	entities using
0.1020000000	entities or
0.1020000000	chosen as
0.1020000000	evidence from
0.1020000000	evidence on
0.1020000000	evidence to
0.1020000000	case with
0.1020000000	distribution under
0.1020000000	distribution at
0.1020000000	distribution without
0.1020000000	distribution while
0.1020000000	distribution into
0.1020000000	observed for
0.1020000000	reduce to
0.1020000000	evidence with
0.1020000000	pixels to
0.1020000000	impact to
0.1020000000	supervised way
0.1020000000	supervised or
0.1020000000	computation using
0.1020000000	case in
0.1020000000	environment from
0.1020000000	environment using
0.1020000000	environment to
0.1020000000	environment by
0.1020000000	pixels as
0.1020000000	recordings of
0.1020000000	sequence from
0.1020000000	hours and
0.1020000000	rewards of
0.1020000000	validated through
0.1020000000	thresholding for
0.1020000000	presents two
0.1020000000	criterion in
0.1020000000	extension and
0.1020000000	probabilities between
0.1020000000	gans for
0.1020000000	posed in
0.1020000000	variants to
0.1020000000	comprehensive and
0.1020000000	variants in
0.1020000000	significantly with
0.1020000000	variants on
0.1020000000	developers of
0.1020000000	developers and
0.1020000000	effort in
0.1020000000	applicability and
0.1020000000	mapping for
0.1020000000	expensive for
0.1020000000	expensive than
0.1020000000	performance while
0.1020000000	processes from
0.1020000000	pixels into
0.1020000000	datasets indicate
0.1020000000	expensive or
0.1020000000	captured using
0.1020000000	notably in
0.1020000000	hours to
0.1020000000	hours on
0.1020000000	gpu in
0.1020000000	fewer than
0.1020000000	points but
0.1020000000	successful at
0.1020000000	points over
0.1020000000	captured and
0.1020000000	environment with
0.1020000000	performances than
0.1020000000	performances with
0.1020000000	performances in
0.1020000000	effort by
0.1020000000	case without
0.1020000000	case as
0.1020000000	steps for
0.1020000000	case for
0.1020000000	point on
0.1020000000	combination for
0.1020000000	combination and
0.1020000000	combination to
0.1020000000	expensive in
0.1020000000	adjusted to
0.1020000000	face to
0.1020000000	recommendations in
0.1020000000	correct for
0.1020000000	speed by
0.1020000000	points while
0.1020000000	significantly from
0.1020000000	effort on
0.1020000000	speed at
0.1020000000	tolerant to
0.1020000000	fact in
0.1020000000	environment through
0.1020000000	competitive on
0.1020000000	competitive in
0.1020000000	successful and
0.1020000000	practical and
0.1020000000	theoretical work
0.1020000000	points with
0.1020000000	neighborhood and
0.1020000000	scratch and
0.1020000000	scratch by
0.1020000000	mapping with
0.1020000000	presents several
0.1020000000	solution using
0.1020000000	traditional ones
0.1020000000	occurrences in
0.1020000000	traditional and
0.1020000000	solution while
0.1020000000	high value
0.1020000000	matched with
0.1020000000	compared and
0.1020000000	compared on
0.1020000000	processes as
0.1020000000	evidence and
0.1020000000	prediction under
0.1020000000	extractors and
0.1020000000	network such
0.1020000000	network does
0.1020000000	network over
0.1020000000	network after
0.1020000000	network from
0.1020000000	scratch using
0.1020000000	network also
0.1020000000	entities to
0.1020000000	introduce novel
0.1020000000	points into
0.1020000000	answering in
0.1020000000	answering system
0.1020000000	prediction from
0.1020000000	traditional one
0.1020000000	network thus
0.1020000000	high amount
0.1020000000	observed by
0.1020000000	reasoning of
0.1020000000	reasoning for
0.1020000000	network but
0.1020000000	manifold of
0.1020000000	algorithms while
0.1020000000	performance or
0.1020000000	performance between
0.1020000000	performance from
0.1020000000	performance both
0.1020000000	performance without
0.1020000000	performance especially
0.1020000000	face of
0.1020000000	layers from
0.1020000000	machine with
0.1020000000	cnns as
0.1020000000	significantly in
0.1020000000	natural way
0.1020000000	datasets as
0.1020000000	thresholding and
0.1020000000	chosen from
0.1020000000	framework also
0.1020000000	network given
0.1020000000	scale as
0.1020000000	algorithms both
0.1020000000	captured under
0.1020000000	environment as
0.1020000000	performance under
0.1020000000	framework by
0.1020000000	calculations of
0.1020000000	significantly to
0.1020000000	prediction to
0.1020000000	processes for
0.1020000000	outperforms or
0.1020000000	performance through
0.1020000000	subjects to
0.1020000000	algorithms namely
0.1020000000	introduce three
0.1020000000	phase for
0.1020000000	discrete or
0.1020000000	derive novel
0.1020000000	single best
0.1020000000	performance even
0.1020000000	question by
0.1020000000	question about
0.1020000000	network during
0.1020000000	answering and
0.1020000000	factor for
0.1020000000	operator with
0.1020000000	algorithms by
0.1020000000	compared by
0.1020000000	manifold for
0.1020000000	network via
0.1020000000	question from
0.1020000000	image so
0.1020000000	python and
0.1020000000	question for
0.1020000000	network through
0.1020000000	presents and
0.1020000000	basis in
0.1020000000	gmm and
0.1020000000	network by
0.1020000000	image via
0.1020000000	emerging from
0.1020000000	network system
0.1020000000	compared in
0.1020000000	network at
0.1020000000	extended and
0.1020000000	engines and
0.1020000000	frequencies in
0.1020000000	performance among
0.1020000000	failures in
0.1020000000	parts for
0.1020000000	derive new
0.1020000000	prediction or
0.1020000000	environment but
0.1020000000	pixels within
0.1020000000	datasets respectively
0.1020000000	dimension for
0.1020000000	single system
0.1020000000	derive from
0.1020000000	framework over
0.1020000000	layers as
0.1020000000	network only
0.1020000000	ability and
0.1020000000	outperforms most
0.1020000000	reasoning using
0.1020000000	generate and
0.1020000000	framework allows
0.1020000000	question as
0.1020000000	compared for
0.1020000000	comparisons and
0.1020000000	classic and
0.1020000000	answering for
0.1020000000	prediction by
0.1020000000	courses of
0.1020000000	taxonomy of
0.1020000000	roles of
0.1020000000	tracks of
0.1020000000	network under
0.1020000000	presents new
0.1020000000	probabilities from
0.1020000000	prediction at
0.1020000000	datasets without
0.1020000000	localization with
0.1020000000	bounds and
0.1020000000	pixels with
0.1020000000	place and
0.1020000000	algorithms under
0.1020000000	datasets by
0.1020000000	framework uses
0.1020000000	act of
0.1020000000	proteins and
0.1020000000	significantly over
0.1020000000	image contains
0.1020000000	network so
0.1020000000	protocol for
0.1020000000	ability in
0.1020000000	distribution given
0.1020000000	question if
0.1020000000	datasets namely
0.1020000000	reasoning on
0.1020000000	language used
0.1020000000	criterion of
0.1020000000	environment for
0.1020000000	datasets against
0.1020000000	extended for
0.1020000000	algorithms over
0.1020000000	image without
0.1020000000	prediction time
0.1020000000	steps to
0.1020000000	introduce several
0.1020000000	processes on
0.1020000000	pixels from
0.1020000000	transferability of
0.1020000000	parser for
0.1020000000	parallel with
0.1020000000	question to
0.1020000000	introduce here
0.1020000000	outperforms many
0.1020000000	machine or
0.1020000000	readability of
0.1020000000	specifications of
0.1020000000	high or
0.1020000000	compared using
0.1020000000	orthogonal to
0.1020000000	datasets such
0.1020000000	scale changes
0.1020000000	algorithms or
0.1020000000	reasoning from
0.1020000000	environment s
0.1020000000	gans with
0.1020000000	algorithms even
0.1020000000	outperforms in
0.1020000000	parts using
0.1020000000	satisfactory and
0.1020000000	localization in
0.1020000000	significantly and
0.1020000000	algorithms but
0.1020000000	discussions on
0.1020000000	convex or
0.1020000000	place on
0.1020000000	thresholding of
0.1020000000	probabilities over
0.1020000000	datasets containing
0.1020000000	dimension in
0.1020000000	policies from
0.1020000000	parts in
0.1020000000	generate novel
0.1020000000	overview and
0.1020000000	estimated to
0.1020000000	network while
0.1020000000	observed from
0.1020000000	algorithms often
0.1020000000	machine for
0.1020000000	framework via
0.1020000000	sciences and
0.1020000000	distribution using
0.1020000000	unsupervised way
0.1020000000	parts by
0.1020000000	observed to
0.1020000000	winner of
0.1020000000	unimodal and
0.1020000000	methodology to
0.1020000000	network uses
0.1020000000	algorithms as
0.1020000000	layout of
0.1020000000	pixels of
0.1020000000	validated in
0.1020000000	unsupervised or
0.1020000000	act and
0.1020000000	act on
0.1020000000	datasets contain
0.1020000000	derive several
0.1020000000	datasets but
0.1020000000	criterion and
0.1020000000	policies on
0.1020000000	algorithms via
0.1020000000	datasets while
0.1020000000	datasets on
0.1020000000	network into
0.1020000000	pixels for
0.1020000000	parts to
0.1020000000	parallel to
0.1020000000	prediction as
0.1020000000	prediction but
0.1020000000	node of
0.1020000000	datasets across
0.1020000000	distribution from
0.1020000000	change to
0.1020000000	devised for
0.1020000000	phase in
0.1020000000	language using
0.1020000000	steps first
0.1020000000	processes to
0.1020000000	curve and
0.1020000000	generate more
0.1020000000	reasoning within
0.1020000000	bounds by
0.1020000000	sampler and
0.1020000000	speed for
0.1020000000	distribution as
0.1020000000	failures of
0.1020000000	point as
0.1020000000	act in
0.1020000000	datasets especially
0.1020000000	generate good
0.1020000000	plan and
0.1020000000	formulations for
0.1020000000	datasets under
0.1020000000	supervised by
0.1020000000	place of
0.1020000000	failures and
0.1020000000	bounds to
0.1020000000	datasets often
0.1020000000	observed at
0.1020000000	extends to
0.1020000000	sequence or
0.1020000000	ranking for
0.1020000000	sequence for
0.1020000000	laws and
0.1020000000	framework provides
0.1020000000	framework namely
0.1020000000	framework first
0.1020000000	framework through
0.1020000000	framework as
0.1020000000	framework from
0.1020000000	prior of
0.1020000000	innovations in
0.1020000000	environment in
0.1020000000	execution and
0.1020000000	environment or
0.1020000000	natural and
0.1020000000	natural for
0.1020000000	language into
0.1020000000	competition with
0.1020000000	effort for
0.1020000000	language with
0.1020000000	language by
0.1020000000	language but
0.1020000000	parallelism of
0.1020000000	competition between
0.1020000000	relational and
0.1020000000	probabilities by
0.1020000000	game to
0.1020000000	algorithms use
0.1020000000	compare three
0.1020000000	closeness of
0.1020000000	capable to
0.1020000000	variety and
0.1020000000	localization using
0.1020000000	observed during
0.1020000000	algorithms without
0.1020000000	queries with
0.1020000000	cnns by
0.1020000000	game with
0.1020000000	extensive and
0.1020000000	points using
0.1020000000	game on
0.1020000000	stage for
0.1020000000	entities as
0.1020000000	algorithms at
0.1020000000	algorithms need
0.1020000000	equation for
0.1020000000	competition and
0.1020000000	high as
0.1020000000	leverages both
0.1020000000	algorithms within
0.1020000000	algorithms especially
0.1020000000	observed on
0.1020000000	algorithms work
0.1020000000	game as
0.1020000000	competitive and
0.1020000000	game of
0.1020000000	extension for
0.1020000000	experimentally with
0.1020000000	species in
0.1020000000	algorithms also
0.1020000000	neighborhood of
0.1020000000	gpu and
0.1020000000	distribution or
0.1020000000	entities from
0.1020000000	case but
0.1020000000	algorithms into
0.1020000000	queries on
0.1020000000	queries by
0.1020000000	algorithms known
0.1020000000	processes by
0.1020000000	processes of
0.1020000000	competitive or
0.1020000000	entities of
0.1020000000	performances and
0.1020000000	performances for
0.1020000000	algorithms from
0.1020000000	algorithms take
0.1020000000	algorithms through
0.1020000000	algorithms available
0.1020000000	t1 and
0.1020000000	algorithms usually
0.1020000000	algorithms either
0.1020000000	distribution but
0.1020000000	compare against
0.1020000000	competition on
0.1020000000	observed through
0.1020000000	significantly on
0.1020000000	competition in
0.1020000000	significantly by
0.1020000000	steps into
0.1020000000	solution on
0.1020000000	redundancy of
0.1020000000	estimated in
0.1020000000	blur and
0.1020000000	correctly and
0.1020000000	device and
0.1020000000	ranking with
0.1020000000	ranking in
0.1020000000	ranking on
0.1020000000	statistically and
0.1020000000	methodology and
0.1020000000	methodology of
0.1020000000	methodology with
0.1020000000	methodology by
0.1020000000	methodology on
0.1020000000	methodology used
0.1020000000	comparisons on
0.1020000000	comparisons for
0.1020000000	comparisons show
0.1020000000	execution in
0.1020000000	harder to
0.1020000000	queries for
0.1020000000	queries in
0.1020000000	effort to
0.1020000000	effort of
0.1020000000	steps with
0.1020000000	steps and
0.1020000000	steps on
0.1020000000	derive two
0.1020000000	extended into
0.1020000000	integrity of
0.1020000000	extended from
0.1020000000	affine and
0.1020000000	computation on
0.1020000000	computation by
0.1020000000	computation to
0.1020000000	computation as
0.1020000000	computation over
0.1020000000	computation with
0.1020000000	linearly in
0.1020000000	limits on
0.1020000000	limits for
0.1020000000	parallelism and
0.1020000000	avenues of
0.1020000000	parallelism in
0.1020000000	faster to
0.1020000000	faster for
0.1020000000	change with
0.1020000000	change from
0.1020000000	change on
0.1020000000	basis to
0.1020000000	basis and
0.1020000000	viability of
0.1020000000	solution as
0.1020000000	solution by
0.1020000000	solution but
0.1020000000	solution under
0.1020000000	solution with
0.1020000000	dimensions using
0.1020000000	dimensions in
0.1020000000	remains to
0.1020000000	remains as
0.1020000000	removing and
0.1020000000	redundancy and
0.1020000000	minutes of
0.1020000000	point with
0.1020000000	point for
0.1020000000	experimentally on
0.1020000000	experimentally in
0.1020000000	parser and
0.1020000000	perceptron and
0.1020000000	perceptron with
0.1020000000	background of
0.1020000000	background for
0.1020000000	background in
0.1020000000	prominent and
0.1020000000	correct and
0.1020000000	factor to
0.1020000000	factor and
0.1020000000	accelerated by
0.1020000000	hardware for
0.1020000000	center of
0.1020000000	center and
0.1020000000	node s
0.1020000000	neighbors to
0.1020000000	neighbors and
0.1020000000	neighbors in
0.1020000000	estimated with
0.1020000000	estimated and
0.1020000000	estimated for
0.1020000000	counting of
0.1020000000	entry in
0.1020000000	minutes and
0.1020000000	minutes to
0.1020000000	invariant with
0.1020000000	invariant and
0.1020000000	frequency in
0.1020000000	cancer and
0.1020000000	rewards in
0.1020000000	rewards for
0.1020000000	emerging as
0.1020000000	counting and
0.1020000000	resolution or
0.1020000000	resolution by
0.1020000000	linearly on
0.1020000000	point at
0.1020000000	point or
0.1020000000	engines in
0.1020000000	engines for
0.1020000000	minimized by
0.1020000000	devised to
0.1020000000	formulations and
0.1020000000	policies with
0.1020000000	policies over
0.1020000000	policies using
0.1020000000	difference and
0.1020000000	difference with
0.1020000000	timing and
0.1020000000	dimensional time
0.1020000000	dimensional and
0.1020000000	dimensional non
0.1020000000	sampler for
0.1020000000	spikes and
0.1020000000	analyse and
0.1020000000	tendency to
0.1020000000	tendency of
0.1020000000	incomplete and
0.1020000000	plan for
0.1020000000	plan in
0.1020000000	outcomes and
0.1020000000	outcomes for
0.1020000000	outcomes in
0.1020000000	impossible for
0.1020000000	impossible in
0.1020000000	geometric and
0.1020000000	moment of
0.1020000000	orientation in
0.1020000000	negative or
0.1020000000	negative of
0.1020000000	mathematics and
0.1020000000	captured at
0.1020000000	definition and
0.1020000000	definition for
0.1020000000	japanese and
0.1020000000	popularity and
0.1020000000	popularity as
0.1020000000	popularity in
0.1020000000	youtube and
0.1020000000	dream of
0.1020000000	intelligent system
0.1020000000	intelligent and
0.1020000000	protocol and
0.1020000000	person from
0.1020000000	complement to
0.1020000000	complement of
0.1020000000	columns in
0.1020000000	columns and
0.1020000000	layout and
0.1020000000	entry of
0.1020000000	frequencies and
0.1020000000	occurrences and
0.1020000000	chosen to
0.1020000000	chosen and
0.1020000000	chosen for
0.1020000000	chosen in
0.1020000000	solvers and
0.1020000000	solvers to
0.1020000000	solvers on
0.1020000000	pictures of
0.1020000000	calculations and
0.1020000000	rigorous and
0.1020000000	robots with
0.1020000000	tagging and
0.1020000000	accounts of
0.1020000000	physiological and
0.1020000000	heuristics to
0.1020000000	heuristics on
0.1020000000	heuristics in
0.1020000000	emotions in
0.1020000000	varies from
0.1020000000	varies with
0.1020000000	understood and
0.1020000000	understood in
0.1020000000	understood by
0.1020000000	adversary to
0.1020000000	tracks in
0.1020000000	stage in
0.1020000000	stage to
0.1020000000	interventions in
0.1020000000	interventions and
0.1020000000	wavelet and
0.1020000000	grow in
0.1020000000	grow with
0.1020000000	histories of
0.1020000000	ratios of
0.1020000000	ratios and
0.1020000000	processors and
0.1020000000	equation and
0.1020000000	equation to
0.1020000000	equation with
0.1020000000	equilibrium in
0.1020000000	equilibrium of
0.1020000000	restoration and
0.1020000000	cs and
0.1020000000	localization by
0.1020000000	localization via
0.1020000000	localization for
0.1020000000	libraries and
0.1020000000	molecules and
0.1020000000	restoration in
0.1020000000	tail of
0.1020000000	inventory of
0.1020000000	logarithm of
0.1020000000	holes and
0.1020000000	cue for
0.1020000000	calculi and
0.1020000000	minimum of
0.1020000000	behave in
0.1020000000	personalization of
0.1020000000	grounding and
0.1020000000	code of
0.1020000000	transformation in
0.1020000000	optimized and
0.1020000000	types in
0.1020000000	optimized to
0.1020000000	linguistics and
0.1020000000	informed by
0.1020000000	demands of
0.1020000000	includes two
0.1020000000	gpus and
0.1020000000	match and
0.1020000000	scalability to
0.1020000000	released in
0.1020000000	released to
0.1020000000	promising way
0.1020000000	synthesis with
0.1020000000	synthesis by
0.1020000000	synthesis system
0.1020000000	correlated to
0.1020000000	recovery for
0.1020000000	released for
0.1020000000	assumptions for
0.1020000000	resources on
0.1020000000	resources available
0.1020000000	resources of
0.1020000000	resources in
0.1020000000	cells with
0.1020000000	intention of
0.1020000000	specialized to
0.1020000000	generalizing to
0.1020000000	event in
0.1020000000	event of
0.1020000000	event and
0.1020000000	branch and
0.1020000000	hmm and
0.1020000000	modelling with
0.1020000000	modelling in
0.1020000000	emergence in
0.1020000000	finding and
0.1020000000	effectiveness for
0.1020000000	set while
0.1020000000	allowing to
0.1020000000	turn to
0.1020000000	understanding with
0.1020000000	researches in
0.1020000000	insights in
0.1020000000	report about
0.1020000000	voc and
0.1020000000	parameters via
0.1020000000	factors or
0.1020000000	factors from
0.1020000000	factors on
0.1020000000	factors for
0.1020000000	factors to
0.1020000000	view with
0.1020000000	view in
0.1020000000	represent different
0.1020000000	foundation and
0.1020000000	autoencoders with
0.1020000000	correlated and
0.1020000000	modelled using
0.1020000000	preferences for
0.1020000000	grown in
0.1020000000	preferences of
0.1020000000	mining with
0.1020000000	mining on
0.1020000000	mining of
0.1020000000	mining for
0.1020000000	alternatives and
0.1020000000	sources from
0.1020000000	sources with
0.1020000000	sources in
0.1020000000	essential in
0.1020000000	machines in
0.1020000000	records of
0.1020000000	records in
0.1020000000	classifiers into
0.1020000000	health of
0.1020000000	comprehension of
0.1020000000	comprehension and
0.1020000000	insights for
0.1020000000	trend of
0.1020000000	fields using
0.1020000000	precise and
0.1020000000	fields in
0.1020000000	properties to
0.1020000000	possibility of
0.1020000000	essential and
0.1020000000	hand in
0.1020000000	hand for
0.1020000000	widely in
0.1020000000	scheduling with
0.1020000000	transformation from
0.1020000000	transformation on
0.1020000000	transformation for
0.1020000000	transformation to
0.1020000000	unknown in
0.1020000000	assumptions to
0.1020000000	assumptions such
0.1020000000	synthesis from
0.1020000000	brings new
0.1020000000	facts and
0.1020000000	exponential and
0.1020000000	usage and
0.1020000000	usage in
0.1020000000	recovery and
0.1020000000	ratings from
0.1020000000	aware and
0.1020000000	sentiments of
0.1020000000	condition to
0.1020000000	svm as
0.1020000000	simulations in
0.1020000000	unknown to
0.1020000000	unknown but
0.1020000000	unknown or
0.1020000000	classifiers or
0.1020000000	classifiers on
0.1020000000	classifiers from
0.1020000000	classifiers while
0.1020000000	classifiers as
0.1020000000	classifiers of
0.1020000000	classifiers using
0.1020000000	autoencoders to
0.1020000000	dependency and
0.1020000000	types from
0.1020000000	view as
0.1020000000	autoencoders and
0.1020000000	options for
0.1020000000	represent and
0.1020000000	aims for
0.1020000000	dynamics by
0.1020000000	types for
0.1020000000	dynamics to
0.1020000000	dynamics on
0.1020000000	dynamics with
0.1020000000	set or
0.1020000000	ranges of
0.1020000000	transformation between
0.1020000000	commonly known
0.1020000000	rating of
0.1020000000	rankings of
0.1020000000	threat to
0.1020000000	3 valued
0.1020000000	order o
0.1020000000	commands and
0.1020000000	understanding by
0.1020000000	hybrid system
0.1020000000	hybrid of
0.1020000000	threshold to
0.1020000000	spatial or
0.1020000000	descriptions from
0.1020000000	descriptions for
0.1020000000	descriptions with
0.1020000000	optima and
0.1020000000	evaluate different
0.1020000000	linearity of
0.1020000000	threshold for
0.1020000000	exists and
0.1020000000	strongly on
0.1020000000	increase with
0.1020000000	infeasible for
0.1020000000	infeasible to
0.1020000000	determined from
0.1020000000	determined using
0.1020000000	formalized in
0.1020000000	modelling using
0.1020000000	cells of
0.1020000000	number n
0.1020000000	labeling to
0.1020000000	labeling in
0.1020000000	labeling with
0.1020000000	weights on
0.1020000000	weights from
0.1020000000	weights as
0.1020000000	weights by
0.1020000000	efficient in
0.1020000000	techniques namely
0.1020000000	techniques of
0.1020000000	techniques but
0.1020000000	techniques by
0.1020000000	techniques while
0.1020000000	techniques using
0.1020000000	properties on
0.1020000000	assumptions of
0.1020000000	types or
0.1020000000	finding such
0.1020000000	transformation and
0.1020000000	finding good
0.1020000000	optimized via
0.1020000000	contours of
0.1020000000	consuming and
0.1020000000	line and
0.1020000000	preferences from
0.1020000000	reduction for
0.1020000000	examples with
0.1020000000	edges or
0.1020000000	evaluate two
0.1020000000	evaluate on
0.1020000000	evaluate several
0.1020000000	evaluate three
0.1020000000	successfully in
0.1020000000	adding and
0.1020000000	determined and
0.1020000000	sketches of
0.1020000000	planes and
0.1020000000	records for
0.1020000000	scanning and
0.1020000000	justification of
0.1020000000	justification and
0.1020000000	reduction on
0.1020000000	correlations of
0.1020000000	transformation with
0.1020000000	dependency in
0.1020000000	minimizer of
0.1020000000	research as
0.1020000000	research to
0.1020000000	research for
0.1020000000	research with
0.1020000000	labeling by
0.1020000000	remain in
0.1020000000	records and
0.1020000000	revision of
0.1020000000	chain and
0.1020000000	chain of
0.1020000000	degree in
0.1020000000	techniques available
0.1020000000	sources for
0.1020000000	optima of
0.1020000000	machines using
0.1020000000	price and
0.1020000000	machines on
0.1020000000	machines with
0.1020000000	machines or
0.1020000000	so to
0.1020000000	scalability with
0.1020000000	traits and
0.1020000000	set using
0.1020000000	set on
0.1020000000	traits of
0.1020000000	set at
0.1020000000	set from
0.1020000000	set but
0.1020000000	set used
0.1020000000	building such
0.1020000000	building and
0.1020000000	report of
0.1020000000	validation for
0.1020000000	order for
0.1020000000	weights or
0.1020000000	gradient with
0.1020000000	reliably and
0.1020000000	improvement to
0.1020000000	alternatives in
0.1020000000	includes many
0.1020000000	dynamics as
0.1020000000	vision of
0.1020000000	morphology and
0.1020000000	build and
0.1020000000	remain to
0.1020000000	increase and
0.1020000000	successfully and
0.1020000000	adding more
0.1020000000	understanding for
0.1020000000	exists for
0.1020000000	understanding such
0.1020000000	normalized and
0.1020000000	occluded by
0.1020000000	contextual and
0.1020000000	view for
0.1020000000	infeasible in
0.1020000000	order or
0.1020000000	order as
0.1020000000	order in
0.1020000000	scalability in
0.1020000000	machines to
0.1020000000	set by
0.1020000000	draws on
0.1020000000	understanding on
0.1020000000	augmented by
0.1020000000	set into
0.1020000000	vision with
0.1020000000	vision but
0.1020000000	vision to
0.1020000000	conducted by
0.1020000000	bayes and
0.1020000000	morphology of
0.1020000000	set as
0.1020000000	accurate for
0.1020000000	accurate than
0.1020000000	accurate as
0.1020000000	accurate but
0.1020000000	validation on
0.1020000000	continuation of
0.1020000000	revealed by
0.1020000000	biases and
0.1020000000	modeling such
0.1020000000	exists between
0.1020000000	experimentation and
0.1020000000	deep self
0.1020000000	parameters but
0.1020000000	typical of
0.1020000000	understanding system
0.1020000000	parameters by
0.1020000000	validation in
0.1020000000	lifetime of
0.1020000000	bandwidth and
0.1020000000	resources used
0.1020000000	match with
0.1020000000	odometry and
0.1020000000	orientations of
0.1020000000	parameters across
0.1020000000	parameters into
0.1020000000	microscopy and
0.1020000000	build such
0.1020000000	specialized for
0.1020000000	improvement and
0.1020000000	considered here
0.1020000000	improvement by
0.1020000000	fields to
0.1020000000	verbs and
0.1020000000	hard example
0.1020000000	resources with
0.1020000000	accurate in
0.1020000000	exponentially in
0.1020000000	blocks in
0.1020000000	validation to
0.1020000000	primitives for
0.1020000000	insights to
0.1020000000	ordering and
0.1020000000	efficient since
0.1020000000	optimized in
0.1020000000	cuts and
0.1020000000	insights and
0.1020000000	linearity in
0.1020000000	localize and
0.1020000000	conducted and
0.1020000000	live in
0.1020000000	dynamics from
0.1020000000	communities in
0.1020000000	descriptor to
0.1020000000	improvement from
0.1020000000	records from
0.1020000000	conducted for
0.1020000000	communities and
0.1020000000	averaging and
0.1020000000	weights using
0.1020000000	parameters given
0.1020000000	photo and
0.1020000000	improvement for
0.1020000000	typical in
0.1020000000	set contains
0.1020000000	effectiveness with
0.1020000000	combines several
0.1020000000	improvement with
0.1020000000	reward in
0.1020000000	interference in
0.1020000000	quadratic or
0.1020000000	regressor to
0.1020000000	optimized with
0.1020000000	linguistic and
0.1020000000	parameters at
0.1020000000	fields like
0.1020000000	parameters with
0.1020000000	intention and
0.1020000000	determined in
0.1020000000	exponentially more
0.1020000000	insights of
0.1020000000	condition under
0.1020000000	domain by
0.1020000000	price of
0.1020000000	conducted to
0.1020000000	descriptor in
0.1020000000	parameters used
0.1020000000	results over
0.1020000000	successfully to
0.1020000000	perturbed by
0.1020000000	attentions in
0.1020000000	clear and
0.1020000000	resources to
0.1020000000	results against
0.1020000000	modeling in
0.1020000000	satellite and
0.1020000000	results given
0.1020000000	techniques under
0.1020000000	factors and
0.1020000000	module for
0.1020000000	special interest
0.1020000000	alternatives for
0.1020000000	fields with
0.1020000000	validate and
0.1020000000	factors as
0.1020000000	biases of
0.1020000000	support system
0.1020000000	effectiveness by
0.1020000000	candidates from
0.1020000000	results while
0.1020000000	trajectories for
0.1020000000	shown very
0.1020000000	averaging of
0.1020000000	properties make
0.1020000000	examine two
0.1020000000	hard even
0.1020000000	results allow
0.1020000000	fields as
0.1020000000	properties using
0.1020000000	shown on
0.1020000000	results along
0.1020000000	efficient non
0.1020000000	experimentation on
0.1020000000	creation and
0.1020000000	dynamics for
0.1020000000	support and
0.1020000000	derivative of
0.1020000000	parameters using
0.1020000000	line with
0.1020000000	specialized in
0.1020000000	domain or
0.1020000000	shown and
0.1020000000	product between
0.1020000000	promising and
0.1020000000	parameters like
0.1020000000	colour and
0.1020000000	combines two
0.1020000000	reduction via
0.1020000000	factors with
0.1020000000	vision as
0.1020000000	follow from
0.1020000000	requirements in
0.1020000000	shown here
0.1020000000	collected at
0.1020000000	results under
0.1020000000	includes several
0.1020000000	properties with
0.1020000000	demand in
0.1020000000	localisation and
0.1020000000	averaging for
0.1020000000	match or
0.1020000000	collected through
0.1020000000	set show
0.1020000000	characteristics in
0.1020000000	plausible and
0.1020000000	reduction using
0.1020000000	quadratic in
0.1020000000	realm of
0.1020000000	examples into
0.1020000000	efficient yet
0.1020000000	flows of
0.1020000000	properties in
0.1020000000	hard in
0.1020000000	results especially
0.1020000000	properties from
0.1020000000	techniques or
0.1020000000	properties like
0.1020000000	view by
0.1020000000	validation with
0.1020000000	technology of
0.1020000000	results about
0.1020000000	results give
0.1020000000	properties as
0.1020000000	technology in
0.1020000000	shown by
0.1020000000	module of
0.1020000000	results as
0.1020000000	written as
0.1020000000	shown good
0.1020000000	partitions in
0.1020000000	efficient with
0.1020000000	reduction as
0.1020000000	synthesis using
0.1020000000	view to
0.1020000000	origin of
0.1020000000	control with
0.1020000000	facts in
0.1020000000	realistic and
0.1020000000	domain from
0.1020000000	parameters as
0.1020000000	conversations with
0.1020000000	techniques as
0.1020000000	products from
0.1020000000	residuals of
0.1020000000	match between
0.1020000000	abstractions of
0.1020000000	results even
0.1020000000	written to
0.1020000000	zoom in
0.1020000000	results without
0.1020000000	performing such
0.1020000000	module to
0.1020000000	slam with
0.1020000000	product or
0.1020000000	collecting and
0.1020000000	number and
0.1020000000	parameters on
0.1020000000	inconsistency of
0.1020000000	results clearly
0.1020000000	mining or
0.1020000000	shown for
0.1020000000	domain for
0.1020000000	considered by
0.1020000000	promising for
0.1020000000	synthesis for
0.1020000000	results across
0.1020000000	results both
0.1020000000	conversations and
0.1020000000	results also
0.1020000000	results among
0.1020000000	results not
0.1020000000	efficient but
0.1020000000	results further
0.1020000000	parameters or
0.1020000000	efficient on
0.1020000000	results at
0.1020000000	recognizing and
0.1020000000	collected and
0.1020000000	parameters than
0.1020000000	product and
0.1020000000	reduction by
0.1020000000	optima in
0.1020000000	axioms of
0.1020000000	closure of
0.1020000000	domain using
0.1020000000	efficient to
0.1020000000	for value
0.1020000000	collected using
0.1020000000	reduction from
0.1020000000	proposals and
0.1020000000	characteristics as
0.1020000000	promising in
0.1020000000	research of
0.1020000000	modeling using
0.1020000000	proposals from
0.1020000000	oriented and
0.1020000000	efficient at
0.1020000000	sentiments and
0.1020000000	cores and
0.1020000000	society of
0.1020000000	proposals in
0.1020000000	mining from
0.1020000000	diabetes and
0.1020000000	performing well
0.1020000000	generalizes better
0.1020000000	rare and
0.1020000000	sharing in
0.1020000000	gaussians in
0.1020000000	considered and
0.1020000000	item in
0.1020000000	products in
0.1020000000	candidates with
0.1020000000	test whether
0.1020000000	resampling and
0.1020000000	parameters associated
0.1020000000	assumptions in
0.1020000000	test on
0.1020000000	modeling on
0.1020000000	modeling via
0.1020000000	recovery with
0.1020000000	modeling by
0.1020000000	cores in
0.1020000000	development in
0.1020000000	understanding in
0.1020000000	consuming to
0.1020000000	sharing of
0.1020000000	intensities and
0.1020000000	parameters while
0.1020000000	parameters without
0.1020000000	ratings for
0.1020000000	support of
0.1020000000	support to
0.1020000000	support in
0.1020000000	possibility to
0.1020000000	domain while
0.1020000000	released as
0.1020000000	fields for
0.1020000000	weights with
0.1020000000	hard for
0.1020000000	grounding of
0.1020000000	hard as
0.1020000000	twitter and
0.1020000000	predict if
0.1020000000	set containing
0.1020000000	predict and
0.1020000000	usage for
0.1020000000	landscapes and
0.1020000000	health and
0.1020000000	experimentation with
0.1020000000	coordinates and
0.1020000000	letters and
0.1020000000	properties than
0.1020000000	line in
0.1020000000	technology to
0.1020000000	considered one
0.1020000000	previous one
0.1020000000	characteristics to
0.1020000000	characteristics for
0.1020000000	promising to
0.1020000000	efficient as
0.1020000000	bandwidth of
0.1020000000	widely known
0.1020000000	efficient for
0.1020000000	results into
0.1020000000	collected for
0.1020000000	development for
0.1020000000	cells to
0.1020000000	code in
0.1020000000	code available
0.1020000000	labeling for
0.1020000000	results regarding
0.1020000000	control on
0.1020000000	reduction with
0.1020000000	adaptations of
0.1020000000	toy and
0.1020000000	reward and
0.1020000000	possibility for
0.1020000000	ucf101 and
0.1020000000	demand of
0.1020000000	origin and
0.1020000000	labeling and
0.1020000000	previous best
0.1020000000	accurate on
0.1020000000	previous and
0.1020000000	previous ones
0.1020000000	investigated to
0.1020000000	proposals for
0.1020000000	scalability on
0.1020000000	modelling for
0.1020000000	types with
0.1020000000	condition in
0.1020000000	test in
0.1020000000	test using
0.1020000000	test two
0.1020000000	degree and
0.1020000000	examples given
0.1020000000	processed using
0.1020000000	blocks for
0.1020000000	promising but
0.1020000000	fields from
0.1020000000	typical for
0.1020000000	stages and
0.1020000000	stages in
0.1020000000	stages to
0.1020000000	varying and
0.1020000000	axioms and
0.1020000000	practicality of
0.1020000000	correction and
0.1020000000	correction for
0.1020000000	examples or
0.1020000000	examples for
0.1020000000	examples on
0.1020000000	examples as
0.1020000000	examples by
0.1020000000	examples per
0.1020000000	examples using
0.1020000000	examples show
0.1020000000	examples but
0.1020000000	subsets and
0.1020000000	noises and
0.1020000000	blocks with
0.1020000000	blocks to
0.1020000000	blocks and
0.1020000000	requirements on
0.1020000000	requirements to
0.1020000000	angles of
0.1020000000	expect to
0.1020000000	trajectories with
0.1020000000	trajectories in
0.1020000000	trajectories from
0.1020000000	correlations and
0.1020000000	correlations with
0.1020000000	reviewed and
0.1020000000	dependency of
0.1020000000	regularities of
0.1020000000	intensities of
0.1020000000	occlusion by
0.1020000000	reliability in
0.1020000000	invariance in
0.1020000000	lying in
0.1020000000	rotation of
0.1020000000	collect and
0.1020000000	implications in
0.1020000000	achievable by
0.1020000000	processed and
0.1020000000	processed in
0.1020000000	processed to
0.1020000000	processed with
0.1020000000	fcn for
0.1020000000	fcn with
0.1020000000	clouds of
0.1020000000	clouds and
0.1020000000	clouds in
0.1020000000	axioms for
0.1020000000	fcns for
0.1020000000	orientations and
0.1020000000	collected on
0.1020000000	edges of
0.1020000000	stack of
0.1020000000	bioinformatics and
0.1020000000	pitch and
0.1020000000	supply and
0.1020000000	flows in
0.1020000000	inside of
0.1020000000	deconvolution and
0.1020000000	edges between
0.1020000000	expressed using
0.1020000000	covariance and
0.1020000000	item and
0.1020000000	chance of
0.1020000000	involved and
0.1020000000	anatomical and
0.1020000000	perturbation and
0.1020000000	perturbation of
0.1020000000	linearity and
0.1020000000	trend to
0.1020000000	savings of
0.1020000000	emergence and
0.1020000000	proved very
0.1020000000	proved in
0.1020000000	contours and
0.1020000000	asynchronous and
0.1020000000	threshold and
0.1020000000	primitives and
0.1020000000	simulations on
0.1020000000	recovered by
0.1020000000	demand and
0.1020000000	recovery via
0.1020000000	reflected by
0.1020000000	recovery using
0.1020000000	plane and
0.1020000000	transportation and
0.1020000000	implications on
0.1020000000	implications and
0.1020000000	collected over
0.1020000000	collected during
0.1020000000	collected to
0.1020000000	collected with
0.1020000000	coefficient and
0.1020000000	usefulness in
0.1020000000	simulations using
0.1020000000	inpainting and
0.1020000000	surroundings and
0.1020000000	visible and
0.1020000000	opinion of
0.1020000000	occluded and
0.1020000000	foundation of
0.1020000000	cut for
0.1020000000	cast in
0.1020000000	inferences on
0.1020000000	decomposed as
0.1020000000	gaussians with
0.1020000000	simulations with
0.1020000000	simulations for
0.1020000000	smoothness and
0.1020000000	partitions and
0.1020000000	partitions of
0.1020000000	recovery in
0.1020000000	investigated for
0.1020000000	investigated and
0.1020000000	investigated as
0.1020000000	investigated using
0.1020000000	investigated by
0.1020000000	expressivity of
0.1020000000	temperature and
0.1020000000	succeeds in
0.1020000000	operate with
0.1020000000	researches on
0.1020000000	mcmc and
0.1020000000	vital for
0.1020000000	vital to
0.1020000000	medicine and
0.1020000000	moving to
0.1020000000	moving and
0.1020000000	moving in
0.1020000000	metaheuristic for
0.1020000000	consumption in
0.1020000000	consumption and
0.1020000000	walks and
0.1020000000	walks on
0.1020000000	cut and
0.1020000000	inferences from
0.1020000000	inferences and
0.1020000000	tracked in
0.1020000000	onset of
0.1020000000	coordinates of
0.1020000000	coordinates in
0.1020000000	separated from
0.1020000000	internet and
0.1020000000	pomdps with
0.1020000000	door for
0.1020000000	door to
0.1020000000	engineers and
0.1020000000	candidates in
0.1020000000	candidates to
0.1020000000	ends of
0.1020000000	relaxations for
0.1020000000	satisfiability and
0.1020000000	satisfiability of
0.1020000000	sketch and
0.1020000000	sketch of
0.1020000000	law for
0.1020000000	synchronization of
0.1020000000	scheduling for
0.1020000000	scheduling and
0.1020000000	scheduling of
0.1020000000	cycles and
0.1020000000	hashing and
0.1020000000	hashing in
0.1020000000	delays in
0.1020000000	delays and
0.1020000000	uniqueness of
0.1020000000	reuse and
0.1020000000	cycles of
0.1020000000	cycles in
0.1020000000	law of
0.1020000000	formats and
0.1020000000	elimination and
0.1020000000	elimination in
0.1020000000	opportunity for
0.1020000000	branch of
0.1020000000	uniformity of
0.1020000000	standardization of
0.1020000000	china and
0.1020000000	clutter and
0.1020000000	opportunity to
0.1020000000	tagged with
0.1020000000	centrality and
0.1020000000	angles and
0.1020000000	draws from
0.1020000000	verbs in
0.1020000000	formalized by
0.1020000000	profile and
0.1020000000	cohort of
0.1020000000	hmdb51 and
0.1020000000	slam and
0.1020000000	transitivity and
0.1020000000	regularity of
0.1020000000	revision in
0.1020000000	deficiency of
0.1020000000	univariate and
0.1020000000	supply of
0.1020000000	height and
0.1020000000	forced to
0.1020000000	vertical and
0.1020000000	abnormalities in
0.1020000000	contact with
0.1020000000	weeks of
0.1020000000	damage to
0.1020000000	fails in
0.1020000000	implement such
0.1020000000	implement in
0.1020000000	role for
0.1020000000	transmitted to
0.1020000000	assumption about
0.1020000000	preferred by
0.1020000000	areas like
0.1020000000	areas with
0.1020000000	areas for
0.1020000000	partitioning and
0.1020000000	committee of
0.1020000000	segmented using
0.1020000000	segmented by
0.1020000000	efficiency with
0.1020000000	cortex and
0.1020000000	quantity and
0.1020000000	rate using
0.1020000000	measured as
0.1020000000	measured and
0.1020000000	gradients for
0.1020000000	senses and
0.1020000000	define new
0.1020000000	complete with
0.1020000000	complete in
0.1020000000	sparseness of
0.1020000000	experts for
0.1020000000	penalties for
0.1020000000	computations to
0.1020000000	computations with
0.1020000000	computations on
0.1020000000	improved and
0.1020000000	rotations and
0.1020000000	plans to
0.1020000000	feedback to
0.1020000000	define two
0.1020000000	situation and
0.1020000000	region with
0.1020000000	planning using
0.1020000000	map to
0.1020000000	map for
0.1020000000	map between
0.1020000000	predictor for
0.1020000000	predictor in
0.1020000000	predictor with
0.1020000000	predictor and
0.1020000000	scheme allows
0.1020000000	discuss various
0.1020000000	annotation for
0.1020000000	approximations with
0.1020000000	approximations and
0.1020000000	measured on
0.1020000000	translations in
0.1020000000	instances to
0.1020000000	targets at
0.1020000000	targets in
0.1020000000	expert in
0.1020000000	expert s
0.1020000000	speeds and
0.1020000000	avoid such
0.1020000000	subtraction and
0.1020000000	confidence and
0.1020000000	systems as
0.1020000000	systems both
0.1020000000	tuning and
0.1020000000	instances within
0.1020000000	modalities for
0.1020000000	robustness for
0.1020000000	heuristic and
0.1020000000	colors of
0.1020000000	scope and
0.1020000000	segmented and
0.1020000000	modules in
0.1020000000	modules and
0.1020000000	modules for
0.1020000000	modules of
0.1020000000	collections and
0.1020000000	counterpart in
0.1020000000	simulation as
0.1020000000	simulation with
0.1020000000	simulation on
0.1020000000	simulation to
0.1020000000	objectives and
0.1020000000	promise in
0.1020000000	longer time
0.1020000000	rate than
0.1020000000	platform in
0.1020000000	modality for
0.1020000000	superior or
0.1020000000	decidability of
0.1020000000	theory with
0.1020000000	theory as
0.1020000000	regularizer in
0.1020000000	penalty in
0.1020000000	penalty to
0.1020000000	norms of
0.1020000000	computations in
0.1020000000	block for
0.1020000000	posterior and
0.1020000000	concatenation of
0.1020000000	signal from
0.1020000000	signal of
0.1020000000	signal as
0.1020000000	signal for
0.1020000000	investigation and
0.1020000000	simplify and
0.1020000000	robustness with
0.1020000000	advantage and
0.1020000000	advantage in
0.1020000000	advantage to
0.1020000000	translations and
0.1020000000	modules to
0.1020000000	explanations from
0.1020000000	lost in
0.1020000000	net work
0.1020000000	assumption and
0.1020000000	autonomous and
0.1020000000	independently in
0.1020000000	sizes in
0.1020000000	sizes for
0.1020000000	requests for
0.1020000000	technique uses
0.1020000000	encode and
0.1020000000	technique provides
0.1020000000	clusters using
0.1020000000	autonomous system
0.1020000000	novelty in
0.1020000000	novelty of
0.1020000000	weaknesses of
0.1020000000	weaknesses in
0.1020000000	row and
0.1020000000	agreement on
0.1020000000	matrix at
0.1020000000	matrix between
0.1020000000	efficiency while
0.1020000000	efficiency than
0.1020000000	propagation as
0.1020000000	reasonable to
0.1020000000	areas as
0.1020000000	propagation with
0.1020000000	propagation through
0.1020000000	propagation in
0.1020000000	capabilities with
0.1020000000	relevance in
0.1020000000	preferred to
0.1020000000	tracking to
0.1020000000	experts or
0.1020000000	called as
0.1020000000	service and
0.1020000000	dropout to
0.1020000000	technique as
0.1020000000	technique allows
0.1020000000	colors and
0.1020000000	makes two
0.1020000000	rate over
0.1020000000	expert to
0.1020000000	promise of
0.1020000000	experts in
0.1020000000	reasonable time
0.1020000000	service of
0.1020000000	quick and
0.1020000000	sensitivity with
0.1020000000	penalty on
0.1020000000	difficult than
0.1020000000	difficult as
0.1020000000	difficult in
0.1020000000	difficult and
0.1020000000	difficult or
0.1020000000	bank of
0.1020000000	phenomenon in
0.1020000000	construct such
0.1020000000	construct and
0.1020000000	capabilities for
0.1020000000	extracted at
0.1020000000	extracted to
0.1020000000	extracted in
0.1020000000	extracted with
0.1020000000	documented in
0.1020000000	phrases or
0.1020000000	phrases of
0.1020000000	phrases from
0.1020000000	dimensionality and
0.1020000000	symptoms and
0.1020000000	systems but
0.1020000000	representative and
0.1020000000	tuning in
0.1020000000	extensible to
0.1020000000	tracking using
0.1020000000	phenomenon and
0.1020000000	lstms on
0.1020000000	lstms and
0.1020000000	lstms for
0.1020000000	comparing and
0.1020000000	comparing two
0.1020000000	comparing different
0.1020000000	published by
0.1020000000	precision with
0.1020000000	precision for
0.1020000000	modality in
0.1020000000	extracted for
0.1020000000	simpler and
0.1020000000	hierarchies and
0.1020000000	rate as
0.1020000000	modality to
0.1020000000	consistently and
0.1020000000	targets and
0.1020000000	tracking from
0.1020000000	some drawbacks
0.1020000000	systems from
0.1020000000	consistently better
0.1020000000	advent of
0.1020000000	penalty and
0.1020000000	process while
0.1020000000	important because
0.1020000000	trust and
0.1020000000	weaknesses and
0.1020000000	focus here
0.1020000000	serves to
0.1020000000	annotation by
0.1020000000	assumption for
0.1020000000	emerge as
0.1020000000	objectives for
0.1020000000	workflow of
0.1020000000	feasibility and
0.1020000000	efficiency on
0.1020000000	senses of
0.1020000000	gradients in
0.1020000000	introduction and
0.1020000000	inference at
0.1020000000	efficiency using
0.1020000000	algorithmic and
0.1020000000	scheme in
0.1020000000	dictionary or
0.1020000000	focus to
0.1020000000	rate while
0.1020000000	existing in
0.1020000000	systems or
0.1020000000	deployment and
0.1020000000	affinity of
0.1020000000	database show
0.1020000000	net for
0.1020000000	improved to
0.1020000000	planning for
0.1020000000	the viewer
0.1020000000	simpler to
0.1020000000	important than
0.1020000000	option for
0.1020000000	thousands to
0.1020000000	occurs at
0.1020000000	technique using
0.1020000000	process more
0.1020000000	theory by
0.1020000000	expression and
0.1020000000	investigation on
0.1020000000	published on
0.1020000000	gradients with
0.1020000000	process such
0.1020000000	counterpart to
0.1020000000	agreement and
0.1020000000	signal into
0.1020000000	inconsistent and
0.1020000000	process from
0.1020000000	computations for
0.1020000000	situation in
0.1020000000	succeed in
0.1020000000	efficiency for
0.1020000000	process using
0.1020000000	quantitatively on
0.1020000000	process without
0.1020000000	propagation and
0.1020000000	architectural and
0.1020000000	theory provides
0.1020000000	potentially more
0.1020000000	sophisticated and
0.1020000000	relationship of
0.1020000000	existing system
0.1020000000	map on
0.1020000000	hierarchies in
0.1020000000	review on
0.1020000000	predictor of
0.1020000000	capabilities in
0.1020000000	simulation in
0.1020000000	role as
0.1020000000	the chalearn
0.1020000000	efficiency but
0.1020000000	tradeoff in
0.1020000000	sizes as
0.1020000000	independently on
0.1020000000	construct two
0.1020000000	inference time
0.1020000000	online at
0.1020000000	improved if
0.1020000000	database in
0.1020000000	journal of
0.1020000000	systems by
0.1020000000	block in
0.1020000000	setting with
0.1020000000	embeddings to
0.1020000000	promise as
0.1020000000	improved with
0.1020000000	theoretically show
0.1020000000	systems without
0.1020000000	systems often
0.1020000000	independently and
0.1020000000	systems like
0.1020000000	robustness by
0.1020000000	define and
0.1020000000	focus more
0.1020000000	cheaper and
0.1020000000	dimensionality in
0.1020000000	em in
0.1020000000	systems use
0.1020000000	technique by
0.1020000000	systems still
0.1020000000	complete system
0.1020000000	detects and
0.1020000000	biological and
0.1020000000	improved using
0.1020000000	choices for
0.1020000000	annotated by
0.1020000000	technique does
0.1020000000	precision at
0.1020000000	process on
0.1020000000	choices in
0.1020000000	required and
0.1020000000	objectives of
0.1020000000	spotting and
0.1020000000	targets of
0.1020000000	scheme used
0.1020000000	choices and
0.1020000000	multivariate and
0.1020000000	theory on
0.1020000000	approximations in
0.1020000000	improved through
0.1020000000	region for
0.1020000000	growth and
0.1020000000	categorical and
0.1020000000	measured with
0.1020000000	focus in
0.1020000000	efficiency to
0.1020000000	systems under
0.1020000000	database with
0.1020000000	dialog and
0.1020000000	annotation or
0.1020000000	crucial and
0.1020000000	discriminative and
0.1020000000	inference via
0.1020000000	process by
0.1020000000	platform to
0.1020000000	obstacles and
0.1020000000	statements in
0.1020000000	clusters from
0.1020000000	embeddings on
0.1020000000	systems especially
0.1020000000	rate at
0.1020000000	embeddings via
0.1020000000	systems via
0.1020000000	rate without
0.1020000000	important but
0.1020000000	efficiency by
0.1020000000	modularity and
0.1020000000	promise to
0.1020000000	salient and
0.1020000000	tracking for
0.1020000000	discuss two
0.1020000000	fitting of
0.1020000000	signal by
0.1020000000	inconsistent with
0.1020000000	thresholds and
0.1020000000	theory but
0.1020000000	tuning to
0.1020000000	scheme on
0.1020000000	precision in
0.1020000000	process at
0.1020000000	phenomenon of
0.1020000000	inference to
0.1020000000	discuss in
0.1020000000	statements and
0.1020000000	adaption of
0.1020000000	causality in
0.1020000000	relationship from
0.1020000000	inference or
0.1020000000	database from
0.1020000000	assumption in
0.1020000000	shifts in
0.1020000000	leverage on
0.1020000000	message and
0.1020000000	block of
0.1020000000	hindi and
0.1020000000	filter for
0.1020000000	parametric and
0.1020000000	precision by
0.1020000000	contributions in
0.1020000000	surprisingly well
0.1020000000	systems at
0.1020000000	precision on
0.1020000000	tuning for
0.1020000000	matrix to
0.1020000000	existing and
0.1020000000	setting by
0.1020000000	technique of
0.1020000000	modern computer
0.1020000000	independently for
0.1020000000	technique also
0.1020000000	explanations and
0.1020000000	systems usually
0.1020000000	quantify and
0.1020000000	relevance between
0.1020000000	independently with
0.1020000000	makes possible
0.1020000000	rate or
0.1020000000	rate by
0.1020000000	discovering and
0.1020000000	inaccurate and
0.1020000000	contributions and
0.1020000000	process but
0.1020000000	feedback about
0.1020000000	partitioning of
0.1020000000	longer than
0.1020000000	feedback for
0.1020000000	confidence of
0.1020000000	inference using
0.1020000000	technique from
0.1020000000	theory also
0.1020000000	region as
0.1020000000	sharp and
0.1020000000	tracking via
0.1020000000	iterative and
0.1020000000	biological system
0.1020000000	thresholds of
0.1020000000	differ by
0.1020000000	setting but
0.1020000000	review and
0.1020000000	status and
0.1020000000	scheme provides
0.1020000000	modalities as
0.1020000000	important since
0.1020000000	thresholds for
0.1020000000	propagation for
0.1020000000	scope for
0.1020000000	role and
0.1020000000	role to
0.1020000000	process or
0.1020000000	inference system
0.1020000000	feedback on
0.1020000000	inference but
0.1020000000	superior in
0.1020000000	matrix while
0.1020000000	annotated for
0.1020000000	inference by
0.1020000000	inference under
0.1020000000	inference from
0.1020000000	inference without
0.1020000000	inspiration for
0.1020000000	block to
0.1020000000	meant to
0.1020000000	process through
0.1020000000	c and
0.1020000000	connect to
0.1020000000	planning under
0.1020000000	planning of
0.1020000000	participants in
0.1020000000	presence or
0.1020000000	feedback in
0.1020000000	feedback of
0.1020000000	process over
0.1020000000	trust in
0.1020000000	process into
0.1020000000	instances or
0.1020000000	tuning with
0.1020000000	embeddings using
0.1020000000	discuss possible
0.1020000000	discuss and
0.1020000000	discuss about
0.1020000000	relationship and
0.1020000000	relationship in
0.1020000000	dictionary as
0.1020000000	regularizer and
0.1020000000	dropout on
0.1020000000	discriminative for
0.1020000000	filter with
0.1020000000	objectives in
0.1020000000	important and
0.1020000000	heuristic in
0.1020000000	explanations in
0.1020000000	clusters or
0.1020000000	capabilities to
0.1020000000	improving on
0.1020000000	thousands or
0.1020000000	tuning on
0.1020000000	deployment on
0.1020000000	identifying and
0.1020000000	regularizer for
0.1020000000	areas from
0.1020000000	targets for
0.1020000000	changing and
0.1020000000	important as
0.1020000000	map with
0.1020000000	improved in
0.1020000000	improved from
0.1020000000	situation of
0.1020000000	relevance for
0.1020000000	the singularity
0.1020000000	setting for
0.1020000000	setting to
0.1020000000	setting using
0.1020000000	instances for
0.1020000000	instances as
0.1020000000	platform and
0.1020000000	platform with
0.1020000000	scheme by
0.1020000000	scheme using
0.1020000000	quantitatively and
0.1020000000	scheme with
0.1020000000	scheme of
0.1020000000	improving over
0.1020000000	efficiency as
0.1020000000	cifar10 and
0.1020000000	embeddings with
0.1020000000	embeddings by
0.1020000000	discovery with
0.1020000000	discovery for
0.1020000000	discovery from
0.1020000000	discovery using
0.1020000000	nmf for
0.1020000000	agreement of
0.1020000000	agreement in
0.1020000000	participants and
0.1020000000	participants of
0.1020000000	granularity of
0.1020000000	granularity and
0.1020000000	validity of
0.1020000000	validity and
0.1020000000	statements of
0.1020000000	hierarchies of
0.1020000000	calibrated and
0.1020000000	actors in
0.1020000000	actors and
0.1020000000	emerge in
0.1020000000	extensible and
0.1020000000	arrival of
0.1020000000	offs in
0.1020000000	tracker to
0.1020000000	accessible and
0.1020000000	strings of
0.1020000000	strings and
0.1020000000	projects and
0.1020000000	rcnn and
0.1020000000	factorizations and
0.1020000000	keywords in
0.1020000000	keywords and
0.1020000000	medium and
0.1020000000	medium to
0.1020000000	medium for
0.1020000000	fitting and
0.1020000000	cities in
0.1020000000	cities and
0.1020000000	proposition of
0.1020000000	sides of
0.1020000000	abduction and
0.1020000000	association and
0.1020000000	association with
0.1020000000	solver and
0.1020000000	generating new
0.1020000000	estimates from
0.1020000000	proposed but
0.1020000000	structure as
0.1020000000	uncertainty into
0.1020000000	uncertainty to
0.1020000000	proposed with
0.1020000000	spectrum and
0.1020000000	iteration of
0.1020000000	characterized in
0.1020000000	optimize for
0.1020000000	optimize over
0.1020000000	preferable to
0.1020000000	hidden from
0.1020000000	lfw and
0.1020000000	throughput of
0.1020000000	throughput and
0.1020000000	developing new
0.1020000000	levels and
0.1020000000	constrained and
0.1020000000	interpreted by
0.1020000000	interpreted in
0.1020000000	budget of
0.1020000000	possibly non
0.1020000000	possibly with
0.1020000000	nodes using
0.1020000000	languages by
0.1020000000	languages from
0.1020000000	languages in
0.1020000000	items for
0.1020000000	languages or
0.1020000000	languages with
0.1020000000	softmax and
0.1020000000	benefits over
0.1020000000	benefits to
0.1020000000	benefits for
0.1020000000	benefits in
0.1020000000	levels for
0.1020000000	annotations on
0.1020000000	annotations as
0.1020000000	annotations from
0.1020000000	consisting in
0.1020000000	pattern in
0.1020000000	pattern with
0.1020000000	operations for
0.1020000000	operations of
0.1020000000	operations to
0.1020000000	annotators to
0.1020000000	controlled and
0.1020000000	deeper and
0.1020000000	differentiable and
0.1020000000	date most
0.1020000000	reported on
0.1020000000	reported for
0.1020000000	attempt at
0.1020000000	detectors on
0.1020000000	intentions and
0.1020000000	information not
0.1020000000	operation to
0.1020000000	operation in
0.1020000000	operation with
0.1020000000	forms and
0.1020000000	incremental and
0.1020000000	pair with
0.1020000000	embedding with
0.1020000000	items or
0.1020000000	programming system
0.1020000000	programming on
0.1020000000	methods as
0.1020000000	annotators and
0.1020000000	methods without
0.1020000000	developed several
0.1020000000	convolutions with
0.1020000000	scenario with
0.1020000000	scenario of
0.1020000000	scenario in
0.1020000000	unary and
0.1020000000	structure between
0.1020000000	information at
0.1020000000	recall in
0.1020000000	analog of
0.1020000000	forms in
0.1020000000	aspect in
0.1020000000	rule in
0.1020000000	descent as
0.1020000000	score with
0.1020000000	score between
0.1020000000	score from
0.1020000000	score in
0.1020000000	score as
0.1020000000	automated way
0.1020000000	automated and
0.1020000000	recall for
0.1020000000	feature in
0.1020000000	reliable in
0.1020000000	controlling for
0.1020000000	typically not
0.1020000000	weak and
0.1020000000	impractical in
0.1020000000	hypothesis for
0.1020000000	hypothesis and
0.1020000000	verified in
0.1020000000	manual work
0.1020000000	learning only
0.1020000000	rich and
0.1020000000	contexts and
0.1020000000	patients in
0.1020000000	information like
0.1020000000	patients using
0.1020000000	strategies used
0.1020000000	strategies such
0.1020000000	strategies from
0.1020000000	strategies as
0.1020000000	balance of
0.1020000000	completion with
0.1020000000	completion time
0.1020000000	operation and
0.1020000000	operation on
0.1020000000	disorders and
0.1020000000	cost per
0.1020000000	cost than
0.1020000000	cost but
0.1020000000	cost to
0.1020000000	cost on
0.1020000000	cost by
0.1020000000	cost while
0.1020000000	cost with
0.1020000000	scans from
0.1020000000	strategy as
0.1020000000	procedure as
0.1020000000	spirit to
0.1020000000	interaction among
0.1020000000	interaction in
0.1020000000	interaction and
0.1020000000	active in
0.1020000000	reported to
0.1020000000	learning but
0.1020000000	hypothesis of
0.1020000000	forms for
0.1020000000	neurons of
0.1020000000	neurons from
0.1020000000	neurons to
0.1020000000	popular for
0.1020000000	typically use
0.1020000000	simple enough
0.1020000000	pretrained on
0.1020000000	popular as
0.1020000000	typically non
0.1020000000	attractive and
0.1020000000	visualizations of
0.1020000000	estimates on
0.1020000000	learning often
0.1020000000	burden of
0.1020000000	methods not
0.1020000000	achieve almost
0.1020000000	achieve more
0.1020000000	programming under
0.1020000000	capability and
0.1020000000	achieve near
0.1020000000	learning within
0.1020000000	feature from
0.1020000000	simultaneously by
0.1020000000	simultaneously and
0.1020000000	simultaneously with
0.1020000000	generating novel
0.1020000000	alternating between
0.1020000000	scenario and
0.1020000000	iteration in
0.1020000000	iteration for
0.1020000000	optimization via
0.1020000000	optimization under
0.1020000000	optimization to
0.1020000000	optimization as
0.1020000000	optimization using
0.1020000000	uncertainty for
0.1020000000	optimization by
0.1020000000	scenario for
0.1020000000	superiority in
0.1020000000	descent by
0.1020000000	descent or
0.1020000000	extraction as
0.1020000000	elements from
0.1020000000	elements for
0.1020000000	estimates in
0.1020000000	date and
0.1020000000	aligned to
0.1020000000	article and
0.1020000000	annotations and
0.1020000000	addition and
0.1020000000	burden on
0.1020000000	lack in
0.1020000000	estimates to
0.1020000000	extraction using
0.1020000000	continuous or
0.1020000000	resnets and
0.1020000000	estimates and
0.1020000000	storing and
0.1020000000	procedure and
0.1020000000	verified on
0.1020000000	seek for
0.1020000000	long as
0.1020000000	perception for
0.1020000000	estimates by
0.1020000000	attributes as
0.1020000000	attributes for
0.1020000000	attributes to
0.1020000000	completion in
0.1020000000	information together
0.1020000000	benchmark with
0.1020000000	benchmark show
0.1020000000	information during
0.1020000000	information via
0.1020000000	information among
0.1020000000	information with
0.1020000000	information using
0.1020000000	information by
0.1020000000	information only
0.1020000000	information needs
0.1020000000	information over
0.1020000000	account to
0.1020000000	account in
0.1020000000	yields very
0.1020000000	strategy by
0.1020000000	spirit of
0.1020000000	states from
0.1020000000	structure using
0.1020000000	states as
0.1020000000	developing more
0.1020000000	needed and
0.1020000000	needed by
0.1020000000	strategies of
0.1020000000	context using
0.1020000000	context with
0.1020000000	components on
0.1020000000	context or
0.1020000000	learning across
0.1020000000	context from
0.1020000000	ambiguity of
0.1020000000	components using
0.1020000000	enable to
0.1020000000	budget for
0.1020000000	signatures for
0.1020000000	pattern from
0.1020000000	sets or
0.1020000000	sets by
0.1020000000	context on
0.1020000000	sets while
0.1020000000	management for
0.1020000000	sets from
0.1020000000	sets show
0.1020000000	derivatives and
0.1020000000	restricted by
0.1020000000	recurrence of
0.1020000000	lightweight and
0.1020000000	components into
0.1020000000	interaction of
0.1020000000	benchmark of
0.1020000000	theories for
0.1020000000	theories in
0.1020000000	play in
0.1020000000	intuitive and
0.1020000000	geometry for
0.1020000000	ground for
0.1020000000	bring in
0.1020000000	operates by
0.1020000000	explanation in
0.1020000000	explanation to
0.1020000000	learning about
0.1020000000	learning computer
0.1020000000	learning especially
0.1020000000	learning such
0.1020000000	frequent and
0.1020000000	developed from
0.1020000000	storage of
0.1020000000	methods via
0.1020000000	methods especially
0.1020000000	methods under
0.1020000000	theorem in
0.1020000000	methods across
0.1020000000	methods because
0.1020000000	manual and
0.1020000000	methods however
0.1020000000	methods against
0.1020000000	methods show
0.1020000000	methods namely
0.1020000000	query for
0.1020000000	methods while
0.1020000000	methods work
0.1020000000	methods allow
0.1020000000	methods or
0.1020000000	methods both
0.1020000000	reliable for
0.1020000000	local to
0.1020000000	methods through
0.1020000000	uncertainty over
0.1020000000	sets on
0.1020000000	methods over
0.1020000000	minimization under
0.1020000000	sampled at
0.1020000000	interfaces and
0.1020000000	path for
0.1020000000	structure or
0.1020000000	series with
0.1020000000	burden in
0.1020000000	encoding in
0.1020000000	extraction with
0.1020000000	term in
0.1020000000	extraction or
0.1020000000	items from
0.1020000000	attractive to
0.1020000000	long and
0.1020000000	learning even
0.1020000000	learning or
0.1020000000	families with
0.1020000000	learning good
0.1020000000	desire to
0.1020000000	learning more
0.1020000000	survival of
0.1020000000	information than
0.1020000000	motivate and
0.1020000000	statistics to
0.1020000000	methods make
0.1020000000	channel of
0.1020000000	approximate and
0.1020000000	slightly more
0.1020000000	retrieval on
0.1020000000	theorem of
0.1020000000	constraint into
0.1020000000	deletion of
0.1020000000	standard ones
0.1020000000	standard to
0.1020000000	standard in
0.1020000000	standard way
0.1020000000	standard and
0.1020000000	contrast between
0.1020000000	strategies with
0.1020000000	account and
0.1020000000	convolutions and
0.1020000000	pair and
0.1020000000	humans or
0.1020000000	humans do
0.1020000000	sufficient to
0.1020000000	path to
0.1020000000	observation to
0.1020000000	observation and
0.1020000000	humans for
0.1020000000	annotations to
0.1020000000	information within
0.1020000000	constraint to
0.1020000000	strategy on
0.1020000000	methods mostly
0.1020000000	standard for
0.1020000000	nodes or
0.1020000000	constraint of
0.1020000000	yields good
0.1020000000	readings of
0.1020000000	structure while
0.1020000000	optimization or
0.1020000000	contrast with
0.1020000000	capability in
0.1020000000	deformations of
0.1020000000	flexibility for
0.1020000000	minimization for
0.1020000000	necessity of
0.1020000000	convolutions in
0.1020000000	consequences for
0.1020000000	states or
0.1020000000	typically only
0.1020000000	including non
0.1020000000	levels using
0.1020000000	path and
0.1020000000	such system
0.1020000000	small part
0.1020000000	components with
0.1020000000	developed under
0.1020000000	benefits and
0.1020000000	simultaneously in
0.1020000000	semantics to
0.1020000000	rich in
0.1020000000	detected with
0.1020000000	wealth of
0.1020000000	semantics such
0.1020000000	semantics by
0.1020000000	estimates at
0.1020000000	memory for
0.1020000000	structure over
0.1020000000	attractive for
0.1020000000	sets containing
0.1020000000	capture both
0.1020000000	capture such
0.1020000000	differentiation of
0.1020000000	capture and
0.1020000000	strategy with
0.1020000000	geometry from
0.1020000000	structure but
0.1020000000	stationary and
0.1020000000	procedure using
0.1020000000	reported and
0.1020000000	proposed two
0.1020000000	path in
0.1020000000	methods often
0.1020000000	strategy from
0.1020000000	methods use
0.1020000000	proposed using
0.1020000000	developed here
0.1020000000	interaction to
0.1020000000	retrieval time
0.1020000000	learning without
0.1020000000	semantics using
0.1020000000	developed within
0.1020000000	databases using
0.1020000000	elements to
0.1020000000	reinforcement and
0.1020000000	programming and
0.1020000000	learning towards
0.1020000000	interfaces to
0.1020000000	including two
0.1020000000	learning both
0.1020000000	nodes on
0.1020000000	descent on
0.1020000000	proposed new
0.1020000000	retrieval from
0.1020000000	simultaneously using
0.1020000000	completion via
0.1020000000	offers new
0.1020000000	programming for
0.1020000000	correctness and
0.1020000000	attributes or
0.1020000000	learning than
0.1020000000	optimisation and
0.1020000000	states with
0.1020000000	extraction on
0.1020000000	structure via
0.1020000000	lattices and
0.1020000000	learning two
0.1020000000	marketing and
0.1020000000	extraction for
0.1020000000	standard mean
0.1020000000	absent in
0.1020000000	generating and
0.1020000000	structure within
0.1020000000	benchmarking of
0.1020000000	patients from
0.1020000000	forest and
0.1020000000	information while
0.1020000000	components to
0.1020000000	humans to
0.1020000000	information but
0.1020000000	strategies using
0.1020000000	score on
0.1020000000	standard of
0.1020000000	optimization through
0.1020000000	descent and
0.1020000000	procedure with
0.1020000000	methods into
0.1020000000	proposed system
0.1020000000	learning allows
0.1020000000	regular and
0.1020000000	developed over
0.1020000000	observation in
0.1020000000	joint and
0.1020000000	small for
0.1020000000	estimates with
0.1020000000	attention during
0.1020000000	strategy of
0.1020000000	languages like
0.1020000000	optimization time
0.1020000000	attention as
0.1020000000	proposed novel
0.1020000000	needed in
0.1020000000	including i
0.1020000000	methods but
0.1020000000	inappropriate for
0.1020000000	proposed one
0.1020000000	informativeness of
0.1020000000	hypothesis in
0.1020000000	strategies by
0.1020000000	minimization to
0.1020000000	reported by
0.1020000000	proposed such
0.1020000000	proposed non
0.1020000000	rendering and
0.1020000000	convolutions for
0.1020000000	attention since
0.1020000000	learning since
0.1020000000	extraction to
0.1020000000	embedding from
0.1020000000	shrinkage and
0.1020000000	optimization on
0.1020000000	information need
0.1020000000	simple two
0.1020000000	learning better
0.1020000000	proposed work
0.1020000000	account both
0.1020000000	learning over
0.1020000000	popular among
0.1020000000	units for
0.1020000000	proposed several
0.1020000000	simple way
0.1020000000	proposed over
0.1020000000	series by
0.1020000000	term for
0.1020000000	capability for
0.1020000000	methods also
0.1020000000	server and
0.1020000000	embedding as
0.1020000000	local changes
0.1020000000	developed two
0.1020000000	interact and
0.1020000000	neurons for
0.1020000000	learning while
0.1020000000	management in
0.1020000000	genes and
0.1020000000	sensitive and
0.1020000000	information used
0.1020000000	capture more
0.1020000000	learning under
0.1020000000	extraction in
0.1020000000	scarce and
0.1020000000	linear ones
0.1020000000	learning provides
0.1020000000	developed with
0.1020000000	methods usually
0.1020000000	pooling for
0.1020000000	principle to
0.1020000000	estimates than
0.1020000000	learning time
0.1020000000	classes as
0.1020000000	learning one
0.1020000000	strategy using
0.1020000000	learning non
0.1020000000	sets using
0.1020000000	capability to
0.1020000000	learning at
0.1020000000	nodes from
0.1020000000	pattern for
0.1020000000	learning does
0.1020000000	small but
0.1020000000	learning so
0.1020000000	developed system
0.1020000000	verified with
0.1020000000	score to
0.1020000000	publication of
0.1020000000	amplitude and
0.1020000000	memory or
0.1020000000	learning becomes
0.1020000000	cost as
0.1020000000	developing and
0.1020000000	open new
0.1020000000	statistics for
0.1020000000	components from
0.1020000000	converted from
0.1020000000	algebra for
0.1020000000	term to
0.1020000000	proposed on
0.1020000000	small to
0.1020000000	offers several
0.1020000000	achieve such
0.1020000000	information beyond
0.1020000000	poorly in
0.1020000000	slightly different
0.1020000000	automation of
0.1020000000	simple as
0.1020000000	simple example
0.1020000000	procedure in
0.1020000000	consumers and
0.1020000000	simple non
0.1020000000	information or
0.1020000000	extraction by
0.1020000000	procedure to
0.1020000000	path between
0.1020000000	path from
0.1020000000	contrast and
0.1020000000	languages into
0.1020000000	researchers from
0.1020000000	attributes using
0.1020000000	methods at
0.1020000000	subspaces of
0.1020000000	procedure by
0.1020000000	methods available
0.1020000000	databases in
0.1020000000	structure at
0.1020000000	structure into
0.1020000000	components for
0.1020000000	pooling of
0.1020000000	interfaces for
0.1020000000	feature for
0.1020000000	feature to
0.1020000000	feature s
0.1020000000	editing and
0.1020000000	hidden in
0.1020000000	cost for
0.1020000000	developed as
0.1020000000	developed on
0.1020000000	proof and
0.1020000000	java and
0.1020000000	languages for
0.1020000000	popular and
0.1020000000	popular way
0.1020000000	capture different
0.1020000000	variances of
0.1020000000	laplacian and
0.1020000000	incorporated with
0.1020000000	benchmark to
0.1020000000	small as
0.1020000000	small or
0.1020000000	small in
0.1020000000	levels in
0.1020000000	learning because
0.1020000000	ground and
0.1020000000	system provides
0.1020000000	information without
0.1020000000	movements in
0.1020000000	topics to
0.1020000000	through crowdsourcing
0.1020000000	driven and
0.1020000000	driven way
0.1020000000	geometry in
0.1020000000	benchmark by
0.1020000000	achieve very
0.1020000000	tables and
0.1020000000	databases for
0.1020000000	statistics with
0.1020000000	optimize and
0.1020000000	speech or
0.1020000000	including ones
0.1020000000	databases with
0.1020000000	capture system
0.1020000000	semantics as
0.1020000000	automation and
0.1020000000	retrieval in
0.1020000000	retrieval with
0.1020000000	methods allows
0.1020000000	impractical to
0.1020000000	retrieval using
0.1020000000	methods either
0.1020000000	retrieval for
0.1020000000	flexibility to
0.1020000000	achieve much
0.1020000000	methods only
0.1020000000	including one
0.1020000000	researchers for
0.1020000000	including for
0.1020000000	automated system
0.1020000000	deletion and
0.1020000000	methods still
0.1020000000	binary or
0.1020000000	including different
0.1020000000	myriad of
0.1020000000	advantageous in
0.1020000000	local or
0.1020000000	regime for
0.1020000000	methods mainly
0.1020000000	ambiguity and
0.1020000000	procedure on
0.1020000000	statistics in
0.1020000000	statistics from
0.1020000000	statistics on
0.1020000000	simultaneously to
0.1020000000	components as
0.1020000000	typically do
0.1020000000	score over
0.1020000000	encoding for
0.1020000000	pattern as
0.1020000000	pattern and
0.1020000000	pattern to
0.1020000000	attention over
0.1020000000	feature or
0.1020000000	budget and
0.1020000000	active and
0.1020000000	attention of
0.1020000000	overhead of
0.1020000000	open and
0.1020000000	open to
0.1020000000	completion by
0.1020000000	databases show
0.1020000000	databases as
0.1020000000	structure among
0.1020000000	article provides
0.1020000000	components by
0.1020000000	all over
0.1020000000	movements and
0.1020000000	posts and
0.1020000000	versatile and
0.1020000000	solver to
0.1020000000	combinations and
0.1020000000	angular and
0.1020000000	information along
0.1020000000	topics of
0.1020000000	sampled in
0.1020000000	variances in
0.1020000000	scaled to
0.1020000000	limit for
0.1020000000	dense and
0.1020000000	poorly on
0.1020000000	color or
0.1020000000	seeks to
0.1020000000	classes but
0.1020000000	classes without
0.1020000000	classes from
0.1020000000	classes for
0.1020000000	classes at
0.1020000000	ambiguities in
0.1020000000	posts in
0.1020000000	regime of
0.1020000000	regime and
0.1020000000	decreases with
0.1020000000	decreases as
0.1020000000	advancement of
0.1020000000	advancement in
0.1020000000	theorem to
0.1020000000	theorem and
0.1020000000	pass and
0.1020000000	pass of
0.1020000000	pass over
0.1020000000	living in
0.1020000000	principle in
0.1020000000	principle by
0.1020000000	principle and
0.1020000000	conversion of
0.1020000000	analog to
0.1020000000	interplay of
0.1020000000	rendering of
0.1020000000	environmental and
0.1020000000	evolved in
0.1020000000	evolved from
0.1020000000	evolved to
0.1020000000	branches and
0.1020000000	sampled by
0.1020000000	hessian of
0.1020000000	transferred from
0.1020000000	poorly with
0.1020000000	items by
0.1020000000	items into
0.1020000000	incorporated to
0.1020000000	solver as
0.1020000000	solver in
0.1020000000	solver with
0.1020000000	paintings and
0.1020000000	targeted to
0.1020000000	attack on
0.1020000000	benign and
0.1020000000	contexts for
0.1020000000	obstacle to
0.1020000000	obstacle in
0.1020000000	constraint for
0.1020000000	constraint in
0.1020000000	era of
0.1020000000	parallelization of
0.1020000000	proof for
0.1020000000	rbms and
0.1020000000	ica and
0.1020000000	pca to
0.1020000000	pca for
0.1020000000	detected using
0.1020000000	detected and
0.1020000000	detected as
0.1020000000	earlier in
0.1020000000	sgd with
0.1020000000	transparent and
0.1020000000	transparent to
0.1020000000	movement of
0.1020000000	movement and
0.1020000000	movement in
0.1020000000	visibility of
0.1020000000	quantification and
0.1020000000	automation in
0.1020000000	valid and
0.1020000000	valid in
0.1020000000	infrastructure for
0.1020000000	infrastructure and
0.1020000000	overhead and
0.1020000000	detectors to
0.1020000000	detectors and
0.1020000000	detectors for
0.1020000000	detectors with
0.1020000000	vae with
0.1020000000	celeba and
0.1020000000	nodes by
0.1020000000	adapted and
0.1020000000	retrieve and
0.1020000000	centroids of
0.1020000000	clusterings of
0.1020000000	convenient to
0.1020000000	analytically and
0.1020000000	nonlinearity and
0.1020000000	nonlinearity of
0.1020000000	roots in
0.1020000000	roots of
0.1020000000	polynomials and
0.1020000000	optimally in
0.1020000000	assisted by
0.1020000000	concern for
0.1020000000	concern in
0.1020000000	forest of
0.1020000000	cleaning and
0.1020000000	limit of
0.1020000000	doctors in
0.1020000000	momentum in
0.1020000000	backgrounds and
0.1020000000	eigenvalues of
0.1020000000	eigenvalues and
0.1020000000	advantageous to
0.1020000000	routines for
0.1020000000	handled in
0.1020000000	utilization and
0.1020000000	diagrams for
0.1020000000	corrected by
0.1020000000	payoffs and
0.1020000000	genetics and
0.1020000000	mix of
0.1020000000	virtue of
0.1020000000	soundness of
0.1020000000	signatures from
0.1020000000	signatures and
0.1020000000	signatures of
0.1020000000	families and
0.1020000000	deformations and
0.1020000000	convenient and
0.1020000000	convenient for
0.1020000000	feret and
0.1020000000	personality and
0.1020000000	subtle and
0.1020000000	justified by
0.1020000000	brought to
0.1020000000	statistic for
0.1020000000	hog and
0.1020000000	pace of
0.1020000000	heterogeneity in
0.1020000000	heterogeneity of
0.1020000000	heterogeneity and
0.1020000000	specificity and
0.1020000000	planners and
0.1020000000	ambiguities and
0.1020000000	informativeness and
0.1020000000	interests in
0.1020000000	interests and
0.1020000000	attempted to
0.1020000000	race and
0.1020000000	posts from
0.1020000000	typology of
0.1020000000	gain more
0.1020000000	gain for
0.1020000000	author and
0.1020000000	encoded with
0.1020000000	reality in
0.1020000000	centralized and
0.1020000000	structures by
0.1020000000	attempts at
0.1020000000	sum and
0.1020000000	provided at
0.1020000000	designed by
0.1020000000	direction to
0.1020000000	direction for
0.1020000000	direction in
0.1020000000	ga to
0.1020000000	permits to
0.1020000000	learner with
0.1020000000	learner s
0.1020000000	learner in
0.1020000000	abundance of
0.1020000000	connection with
0.1020000000	structures while
0.1020000000	structures into
0.1020000000	structures on
0.1020000000	structures or
0.1020000000	structures within
0.1020000000	structures using
0.1020000000	paper gives
0.1020000000	supervision from
0.1020000000	supervision in
0.1020000000	supervision and
0.1020000000	guidance and
0.1020000000	guidance for
0.1020000000	guidance in
0.1020000000	guidance on
0.1020000000	fashion and
0.1020000000	fashion by
0.1020000000	architecture provides
0.1020000000	communication for
0.1020000000	communication system
0.1020000000	perspective in
0.1020000000	perspective to
0.1020000000	perspective and
0.1020000000	representation on
0.1020000000	observable and
0.1020000000	gain over
0.1020000000	answers in
0.1020000000	answers for
0.1020000000	decision in
0.1020000000	guidance from
0.1020000000	scoring and
0.1020000000	outperforming other
0.1020000000	scalable for
0.1020000000	criteria of
0.1020000000	criteria and
0.1020000000	criteria to
0.1020000000	history and
0.1020000000	history in
0.1020000000	generalizability of
0.1020000000	develop such
0.1020000000	develop more
0.1020000000	develop novel
0.1020000000	develop several
0.1020000000	designed as
0.1020000000	fashion to
0.1020000000	labelling of
0.1020000000	action at
0.1020000000	action of
0.1020000000	algebraic and
0.1020000000	search or
0.1020000000	details from
0.1020000000	recently used
0.1020000000	recently in
0.1020000000	recently by
0.1020000000	details about
0.1020000000	recently for
0.1020000000	created at
0.1020000000	distributions between
0.1020000000	answers from
0.1020000000	pedestrians in
0.1020000000	close in
0.1020000000	tuned on
0.1020000000	representation via
0.1020000000	study for
0.1020000000	predicted using
0.1020000000	minima of
0.1020000000	predicted and
0.1020000000	predicted from
0.1020000000	predicted to
0.1020000000	result than
0.1020000000	result by
0.1020000000	result as
0.1020000000	result also
0.1020000000	result to
0.1020000000	result with
0.1020000000	supervision for
0.1020000000	voice and
0.1020000000	patterns over
0.1020000000	patterns with
0.1020000000	patterns between
0.1020000000	patterns into
0.1020000000	patterns as
0.1020000000	patterns or
0.1020000000	importance and
0.1020000000	arrays of
0.1020000000	field from
0.1020000000	field for
0.1020000000	sensing and
0.1020000000	opinions in
0.1020000000	analyzed through
0.1020000000	decision for
0.1020000000	analyzed to
0.1020000000	analyzed on
0.1020000000	analyzed with
0.1020000000	provided on
0.1020000000	independence in
0.1020000000	achieving good
0.1020000000	result and
0.1020000000	achieving better
0.1020000000	ii to
0.1020000000	ii and
0.1020000000	reconstruction by
0.1020000000	svd of
0.1020000000	effect and
0.1020000000	advantages for
0.1020000000	difficulties to
0.1020000000	procedures of
0.1020000000	effects from
0.1020000000	effects for
0.1020000000	field in
0.1020000000	terms as
0.1020000000	terms using
0.1020000000	terms from
0.1020000000	positives and
0.1020000000	imagenet and
0.1020000000	distinguish different
0.1020000000	true in
0.1020000000	recently and
0.1020000000	generated and
0.1020000000	complexity without
0.1020000000	complexity while
0.1020000000	complexity than
0.1020000000	complexity as
0.1020000000	complexity per
0.1020000000	pyramid of
0.1020000000	complexity or
0.1020000000	identifiability and
0.1020000000	identifiability of
0.1020000000	philosophy and
0.1020000000	means in
0.1020000000	early as
0.1020000000	vary from
0.1020000000	direction between
0.1020000000	tuned in
0.1020000000	tuned by
0.1020000000	indices of
0.1020000000	usability and
0.1020000000	form for
0.1020000000	form with
0.1020000000	form in
0.1020000000	communication in
0.1020000000	equivalence and
0.1020000000	learner and
0.1020000000	form to
0.1020000000	equivalence to
0.1020000000	level as
0.1020000000	decompositions for
0.1020000000	tokens to
0.1020000000	serve to
0.1020000000	variation on
0.1020000000	variation for
0.1020000000	accomplished using
0.1020000000	interpolation of
0.1020000000	matching using
0.1020000000	matching via
0.1020000000	representation using
0.1020000000	matching for
0.1020000000	matching with
0.1020000000	matching or
0.1020000000	result provides
0.1020000000	interpolation in
0.1020000000	empirically in
0.1020000000	empirically to
0.1020000000	empirically and
0.1020000000	decompositions and
0.1020000000	smartphones and
0.1020000000	distributions using
0.1020000000	distributions or
0.1020000000	distributions by
0.1020000000	general to
0.1020000000	barrier to
0.1020000000	discriminator in
0.1020000000	discriminator and
0.1020000000	patterns within
0.1020000000	analyzed for
0.1020000000	exist to
0.1020000000	exist several
0.1020000000	exist but
0.1020000000	connected in
0.1020000000	guidance to
0.1020000000	scoring of
0.1020000000	true value
0.1020000000	generated via
0.1020000000	generated at
0.1020000000	generated to
0.1020000000	architecture by
0.1020000000	study three
0.1020000000	convergence with
0.1020000000	communication among
0.1020000000	connected and
0.1020000000	kernel least
0.1020000000	learn with
0.1020000000	scalable in
0.1020000000	regularizers and
0.1020000000	stimuli and
0.1020000000	affect and
0.1020000000	gain from
0.1020000000	designed in
0.1020000000	recently many
0.1020000000	hold with
0.1020000000	prevalent in
0.1020000000	decision and
0.1020000000	decision with
0.1020000000	decision of
0.1020000000	decision on
0.1020000000	search through
0.1020000000	evaluation by
0.1020000000	documents as
0.1020000000	biology to
0.1020000000	documents by
0.1020000000	cues with
0.1020000000	literature as
0.1020000000	literature but
0.1020000000	literature for
0.1020000000	literature in
0.1020000000	formulated and
0.1020000000	tutorial on
0.1020000000	built and
0.1020000000	estimation as
0.1020000000	method only
0.1020000000	analyzed by
0.1020000000	exist and
0.1020000000	perceptual and
0.1020000000	complex time
0.1020000000	complex to
0.1020000000	complex than
0.1020000000	complex ones
0.1020000000	field by
0.1020000000	studied to
0.1020000000	studied as
0.1020000000	studied with
0.1020000000	wer on
0.1020000000	difficulties and
0.1020000000	complexity to
0.1020000000	argue in
0.1020000000	means on
0.1020000000	effective as
0.1020000000	fast in
0.1020000000	architecture uses
0.1020000000	effective than
0.1020000000	scales better
0.1020000000	study between
0.1020000000	cues from
0.1020000000	usability of
0.1020000000	cues in
0.1020000000	cues to
0.1020000000	grouping and
0.1020000000	operating system
0.1020000000	form or
0.1020000000	frame of
0.1020000000	representation but
0.1020000000	motion or
0.1020000000	motion using
0.1020000000	study with
0.1020000000	achieves very
0.1020000000	advantages in
0.1020000000	connection of
0.1020000000	paradigms of
0.1020000000	intersections of
0.1020000000	motion between
0.1020000000	low time
0.1020000000	architecture allows
0.1020000000	low or
0.1020000000	low in
0.1020000000	low as
0.1020000000	views with
0.1020000000	variation between
0.1020000000	prohibitive in
0.1020000000	built into
0.1020000000	alignment using
0.1020000000	studied under
0.1020000000	imperceptible to
0.1020000000	arms and
0.1020000000	academia and
0.1020000000	fast at
0.1020000000	fully and
0.1020000000	infinite and
0.1020000000	fast as
0.1020000000	action by
0.1020000000	true and
0.1020000000	hope to
0.1020000000	representation allows
0.1020000000	exercise and
0.1020000000	art on
0.1020000000	multimodal and
0.1020000000	frame in
0.1020000000	estimation on
0.1020000000	cues of
0.1020000000	evaluation with
0.1020000000	grammar for
0.1020000000	evaluation as
0.1020000000	evaluation to
0.1020000000	benefit to
0.1020000000	terms for
0.1020000000	representation as
0.1020000000	communication with
0.1020000000	counterparts and
0.1020000000	cardinality and
0.1020000000	imagenet to
0.1020000000	field with
0.1020000000	regularizers to
0.1020000000	perspective for
0.1020000000	minima and
0.1020000000	created in
0.1020000000	created and
0.1020000000	created to
0.1020000000	created with
0.1020000000	created using
0.1020000000	created for
0.1020000000	learn both
0.1020000000	generated on
0.1020000000	learn useful
0.1020000000	appears as
0.1020000000	coordination and
0.1020000000	estimate both
0.1020000000	estimate for
0.1020000000	ways and
0.1020000000	ways for
0.1020000000	ways in
0.1020000000	ways to
0.1020000000	indices for
0.1020000000	effective on
0.1020000000	effective even
0.1020000000	evolves in
0.1020000000	representation provides
0.1020000000	arbitrary and
0.1020000000	general but
0.1020000000	scales in
0.1020000000	sum to
0.1020000000	symbols and
0.1020000000	preserved by
0.1020000000	structures with
0.1020000000	level co
0.1020000000	densities and
0.1020000000	tuned with
0.1020000000	guaranteed by
0.1020000000	means with
0.1020000000	checking and
0.1020000000	level with
0.1020000000	true or
0.1020000000	coding for
0.1020000000	distributions on
0.1020000000	representation such
0.1020000000	difficulties for
0.1020000000	learn in
0.1020000000	level while
0.1020000000	procedures in
0.1020000000	adaboost and
0.1020000000	topic of
0.1020000000	preserved and
0.1020000000	tuned to
0.1020000000	estimation via
0.1020000000	complexity from
0.1020000000	state as
0.1020000000	supervision through
0.1020000000	topic for
0.1020000000	fast non
0.1020000000	method or
0.1020000000	method also
0.1020000000	subspace with
0.1020000000	proceeds in
0.1020000000	alignment for
0.1020000000	difficulties of
0.1020000000	fashion with
0.1020000000	method s
0.1020000000	details for
0.1020000000	perspective by
0.1020000000	introduces new
0.1020000000	documents with
0.1020000000	sift and
0.1020000000	human s
0.1020000000	fast to
0.1020000000	built to
0.1020000000	art for
0.1020000000	studied on
0.1020000000	autoencoder to
0.1020000000	general than
0.1020000000	learn on
0.1020000000	learner to
0.1020000000	scales as
0.1020000000	general for
0.1020000000	documents using
0.1020000000	relevant or
0.1020000000	representation used
0.1020000000	learn new
0.1020000000	convergent and
0.1020000000	interface with
0.1020000000	achieves near
0.1020000000	means to
0.1020000000	art or
0.1020000000	study provides
0.1020000000	discrimination in
0.1020000000	hold in
0.1020000000	learn such
0.1020000000	built for
0.1020000000	study here
0.1020000000	paradigms for
0.1020000000	relevant in
0.1020000000	search system
0.1020000000	procedures and
0.1020000000	tokens and
0.1020000000	mode of
0.1020000000	learn by
0.1020000000	radius of
0.1020000000	interface between
0.1020000000	surrogate for
0.1020000000	designers to
0.1020000000	study several
0.1020000000	removal and
0.1020000000	estimate and
0.1020000000	distributions into
0.1020000000	architecture on
0.1020000000	representation into
0.1020000000	propose instead
0.1020000000	clustering from
0.1020000000	distorted by
0.1020000000	field and
0.1020000000	criteria in
0.1020000000	paper by
0.1020000000	literature to
0.1020000000	propose four
0.1020000000	patterns on
0.1020000000	compatibility of
0.1020000000	learn and
0.1020000000	cnn using
0.1020000000	calculation and
0.1020000000	representation or
0.1020000000	study whether
0.1020000000	removal in
0.1020000000	ideas to
0.1020000000	estimation by
0.1020000000	study using
0.1020000000	improvements and
0.1020000000	empirically on
0.1020000000	automatic way
0.1020000000	learn different
0.1020000000	state or
0.1020000000	ideas in
0.1020000000	distributions from
0.1020000000	architecture namely
0.1020000000	subspace for
0.1020000000	estimator to
0.1020000000	relevant and
0.1020000000	literature of
0.1020000000	architecture as
0.1020000000	representation at
0.1020000000	masses in
0.1020000000	study various
0.1020000000	merging of
0.1020000000	paper on
0.1020000000	tweets using
0.1020000000	convergence under
0.1020000000	studied using
0.1020000000	state for
0.1020000000	benefit for
0.1020000000	discrimination of
0.1020000000	achieves more
0.1020000000	study also
0.1020000000	evaluation for
0.1020000000	generated with
0.1020000000	art in
0.1020000000	generated through
0.1020000000	paper contains
0.1020000000	propose in
0.1020000000	architecture using
0.1020000000	evaluation in
0.1020000000	stereo and
0.1020000000	study to
0.1020000000	designed with
0.1020000000	patterns across
0.1020000000	polarity of
0.1020000000	frame work
0.1020000000	metrics like
0.1020000000	competing with
0.1020000000	state with
0.1020000000	profiles of
0.1020000000	inability to
0.1020000000	complementary and
0.1020000000	fast but
0.1020000000	achieves o
0.1020000000	boundaries between
0.1020000000	coarse to
0.1020000000	operating at
0.1020000000	clustering or
0.1020000000	eyes and
0.1020000000	boundaries in
0.1020000000	patterns by
0.1020000000	method via
0.1020000000	learn good
0.1020000000	sense to
0.1020000000	tokens in
0.1020000000	state at
0.1020000000	hyperparameters and
0.1020000000	scientists to
0.1020000000	stability in
0.1020000000	propose various
0.1020000000	generated as
0.1020000000	guidance of
0.1020000000	studied from
0.1020000000	art of
0.1020000000	supervision of
0.1020000000	level using
0.1020000000	experimented on
0.1020000000	practitioners in
0.1020000000	reconstruction with
0.1020000000	coding of
0.1020000000	provided and
0.1020000000	reconstruction as
0.1020000000	method namely
0.1020000000	ideas with
0.1020000000	built as
0.1020000000	mse and
0.1020000000	details on
0.1020000000	propose using
0.1020000000	alignment to
0.1020000000	details in
0.1020000000	introduces two
0.1020000000	method gives
0.1020000000	effects and
0.1020000000	method while
0.1020000000	procedures to
0.1020000000	autoencoder for
0.1020000000	signs and
0.1020000000	learn better
0.1020000000	alignment with
0.1020000000	sensing using
0.1020000000	metrics as
0.1020000000	documents or
0.1020000000	grouping of
0.1020000000	formulated by
0.1020000000	complexity but
0.1020000000	search using
0.1020000000	propose such
0.1020000000	effect for
0.1020000000	computable and
0.1020000000	benefit in
0.1020000000	generated for
0.1020000000	architecture or
0.1020000000	likelihoods and
0.1020000000	search via
0.1020000000	study in
0.1020000000	level in
0.1020000000	field to
0.1020000000	designed using
0.1020000000	low to
0.1020000000	sense and
0.1020000000	encoded into
0.1020000000	propose here
0.1020000000	global or
0.1020000000	early in
0.1020000000	improvements by
0.1020000000	improvements with
0.1020000000	portfolio of
0.1020000000	claims and
0.1020000000	supervision on
0.1020000000	pedestrians and
0.1020000000	symbols in
0.1020000000	achieving more
0.1020000000	action from
0.1020000000	overcome by
0.1020000000	overcome such
0.1020000000	representation over
0.1020000000	general non
0.1020000000	general way
0.1020000000	general in
0.1020000000	study and
0.1020000000	convergence as
0.1020000000	persistence of
0.1020000000	discrimination between
0.1020000000	structures from
0.1020000000	graphs under
0.1020000000	metrics in
0.1020000000	wordnet and
0.1020000000	footprint and
0.1020000000	structures as
0.1020000000	automatic system
0.1020000000	convergence than
0.1020000000	ideas for
0.1020000000	surrogate of
0.1020000000	metrics on
0.1020000000	metrics to
0.1020000000	metrics used
0.1020000000	method first
0.1020000000	action to
0.1020000000	human in
0.1020000000	cues and
0.1020000000	human or
0.1020000000	human being
0.1020000000	graphs for
0.1020000000	study two
0.1020000000	study different
0.1020000000	study uses
0.1020000000	level on
0.1020000000	oracle for
0.1020000000	bound with
0.1020000000	locating and
0.1020000000	graphs using
0.1020000000	author of
0.1020000000	coding on
0.1020000000	topic and
0.1020000000	removal from
0.1020000000	projections on
0.1020000000	clustering via
0.1020000000	segmentations of
0.1020000000	discrimination and
0.1020000000	estimation under
0.1020000000	complex in
0.1020000000	representation from
0.1020000000	paper with
0.1020000000	paper for
0.1020000000	paper using
0.1020000000	paper i
0.1020000000	paper provides
0.1020000000	paper also
0.1020000000	reconstruction to
0.1020000000	level but
0.1020000000	introduces and
0.1020000000	svd and
0.1020000000	method as
0.1020000000	method described
0.1020000000	method from
0.1020000000	method without
0.1020000000	method through
0.1020000000	method over
0.1020000000	method but
0.1020000000	method under
0.1020000000	method both
0.1020000000	inverse of
0.1020000000	complex sequential
0.1020000000	direction and
0.1020000000	complex system
0.1020000000	documents from
0.1020000000	improvements for
0.1020000000	convergence in
0.1020000000	search by
0.1020000000	tuned using
0.1020000000	level for
0.1020000000	bands of
0.1020000000	vehicles in
0.1020000000	effective to
0.1020000000	coarse and
0.1020000000	accomplished in
0.1020000000	interface to
0.1020000000	interface and
0.1020000000	occurrence in
0.1020000000	automata with
0.1020000000	implicit in
0.1020000000	argument and
0.1020000000	argument of
0.1020000000	partial and
0.1020000000	partial or
0.1020000000	illustrate with
0.1020000000	projections to
0.1020000000	distances and
0.1020000000	distances to
0.1020000000	distances in
0.1020000000	distances on
0.1020000000	distances from
0.1020000000	distances of
0.1020000000	distances for
0.1020000000	scalable than
0.1020000000	adjectives and
0.1020000000	vary with
0.1020000000	interpretations and
0.1020000000	aco and
0.1020000000	counterparts of
0.1020000000	counterparts in
0.1020000000	views on
0.1020000000	views in
0.1020000000	views from
0.1020000000	splitting and
0.1020000000	embedded with
0.1020000000	paradigms and
0.1020000000	traditionally used
0.1020000000	stability with
0.1020000000	satisfaction of
0.1020000000	independence between
0.1020000000	convergence by
0.1020000000	convergence time
0.1020000000	convergence on
0.1020000000	estimation without
0.1020000000	estimation or
0.1020000000	estimation through
0.1020000000	markets with
0.1020000000	estimation than
0.1020000000	engine to
0.1020000000	engine for
0.1020000000	engine in
0.1020000000	bridge between
0.1020000000	bottlenecks in
0.1020000000	expressiveness of
0.1020000000	expressiveness and
0.1020000000	universality of
0.1020000000	bits of
0.1020000000	bound in
0.1020000000	bound by
0.1020000000	vehicles using
0.1020000000	mode for
0.1020000000	promises to
0.1020000000	inferior to
0.1020000000	violations of
0.1020000000	held by
0.1020000000	held on
0.1020000000	fidelity and
0.1020000000	fidelity of
0.1020000000	densities of
0.1020000000	estimator with
0.1020000000	marginal and
0.1020000000	favor of
0.1020000000	satisfaction and
0.1020000000	batch of
0.1020000000	ensembles for
0.1020000000	ensembles and
0.1020000000	hyperparameters of
0.1020000000	hyperparameters in
0.1020000000	augmentation to
0.1020000000	augmentation for
0.1020000000	augmentation of
0.1020000000	graphs to
0.1020000000	graphs from
0.1020000000	blogs and
0.1020000000	sense in
0.1020000000	index for
0.1020000000	index and
0.1020000000	shape to
0.1020000000	shape or
0.1020000000	concentration of
0.1020000000	early on
0.1020000000	early and
0.1020000000	messages and
0.1020000000	messages from
0.1020000000	ideas of
0.1020000000	ideas on
0.1020000000	distortion and
0.1020000000	mse of
0.1020000000	skeleton of
0.1020000000	practitioners to
0.1020000000	practitioners and
0.1020000000	load and
0.1020000000	cloud of
0.1020000000	redundant and
0.1020000000	redundant or
0.1020000000	structural and
0.1020000000	footprint of
0.1020000000	sensor to
0.1020000000	sensor s
0.1020000000	sensor with
0.1020000000	sensor and
0.1020000000	substantially different
0.1020000000	reconstruction for
0.1020000000	reconstruction via
0.1020000000	tweets from
0.1020000000	grammar and
0.1020000000	stated in
0.1020000000	locate and
0.1020000000	expanded to
0.1020000000	books and
0.1020000000	unconstrained and
0.1020000000	merge and
0.1020000000	simplest of
0.1020000000	proceeds by
0.1020000000	overlooked in
0.1020000000	student and
0.1020000000	distortion of
0.1020000000	divide and
0.1020000000	inability of
0.1020000000	disambiguation and
0.1020000000	disambiguation of
0.1020000000	prohibitive for
0.1020000000	occurrence and
0.1020000000	profiles and
0.1020000000	designers and
0.1020000000	passed to
0.1020000000	unification of
0.1020000000	signature of
0.1020000000	tumors in
0.1020000000	preserved in
0.1020000000	drugs and
0.1020000000	rationale for
0.1020000000	reality and
0.1020000000	vehicles and
0.1020000000	vehicles to
0.1020000000	faults in
0.1020000000	formulated for
0.1020000000	formulated to
0.1020000000	bands and
0.1020000000	compatibility with
0.1020000000	specification and
0.1020000000	equivalence in
0.1020000000	scientists and
0.1020000000	cardinality of
0.1020000000	coordination of
0.1020000000	populations of
0.1020000000	populations and
0.1020000000	populations in
0.1020000000	projections for
0.1020000000	projections in
0.1020000000	projections and
0.1020000000	problematic for
0.1020000000	problematic in
0.1020000000	claim to
0.1020000000	implication of
0.1020000000	located on
0.1020000000	wavelets and
0.1020000000	inconsistencies in
0.1020000000	determination in
0.1020000000	vulnerability of
0.1020000000	interpolation with
0.1020000000	sought to
0.1020000000	dissimilar to
0.1020000000	concise and
0.1020000000	outliers or
0.1020000000	outliers from
0.1020000000	binarization and
0.1020000000	proceed to
0.1020000000	proceed by
0.1020000000	consideration and
0.1020000000	consideration for
0.1020000000	consideration in
0.1020000000	histograms and
0.1020000000	aids in
0.1020000000	violated in
0.1020000000	tolerance and
0.1020000000	pages of
0.1020000000	pages and
0.1020000000	inadequate for
0.1020000000	opinions of
0.1020000000	opinions and
0.1020000000	automata and
0.1020000000	origins of
0.1020000000	filtered by
0.1020000000	imperative to
0.1020000000	markets and
0.1020000000	histogram and
0.1020000000	guidelines on
0.1020000000	guidelines to
0.1020000000	guidelines and
0.1020000000	foundations and
0.1020000000	consciousness and
0.1020000000	calibration and
0.1020000000	calibration for
0.1020000000	signs of
0.1020000000	compilation of
0.1020000000	universe of
0.1020000000	knn and
0.1020000000	utility in
0.1020000000	utility to
0.1020000000	transition in
0.1020000000	transition from
0.1020000000	transition system
0.1020000000	manipulation and
0.1020000000	trees from
0.1020000000	trees to
0.1020000000	successes and
0.1020000000	successes of
0.1020000000	assignment to
0.1020000000	population and
0.1020000000	individuals from
0.1020000000	individuals with
0.1020000000	individuals in
0.1020000000	exploitation and
0.1020000000	compression in
0.1020000000	acquired with
0.1020000000	setup to
0.1020000000	lighting and
0.1020000000	input as
0.1020000000	relationships by
0.1020000000	relationships from
0.1020000000	relationships within
0.1020000000	objects through
0.1020000000	transformations in
0.1020000000	advance in
0.1020000000	ahead of
0.1020000000	needing to
0.1020000000	handle various
0.1020000000	handle non
0.1020000000	handle more
0.1020000000	compact than
0.1020000000	data even
0.1020000000	tomography and
0.1020000000	smaller in
0.1020000000	words using
0.1020000000	distance or
0.1020000000	distance as
0.1020000000	distance of
0.1020000000	consistency on
0.1020000000	consistency with
0.1020000000	consistency in
0.1020000000	transition and
0.1020000000	devices to
0.1020000000	devices with
0.1020000000	operators of
0.1020000000	analogy to
0.1020000000	seeking to
0.1020000000	adopted as
0.1020000000	preprocessing of
0.1020000000	unique in
0.1020000000	trees by
0.1020000000	events for
0.1020000000	events using
0.1020000000	events with
0.1020000000	events of
0.1020000000	behaviors for
0.1020000000	nets in
0.1020000000	nets for
0.1020000000	lacking in
0.1020000000	channels in
0.1020000000	transformations for
0.1020000000	transformations to
0.1020000000	observations as
0.1020000000	possibilities for
0.1020000000	template for
0.1020000000	french and
0.1020000000	dependencies from
0.1020000000	efficiently by
0.1020000000	presented using
0.1020000000	presented at
0.1020000000	detector using
0.1020000000	solve different
0.1020000000	parsing for
0.1020000000	events by
0.1020000000	summarization in
0.1020000000	summarization using
0.1020000000	efficacy in
0.1020000000	efficacy and
0.1020000000	parsing via
0.1020000000	speedup in
0.1020000000	efforts to
0.1020000000	train two
0.1020000000	names in
0.1020000000	names for
0.1020000000	possibilities to
0.1020000000	individuals or
0.1020000000	comparable in
0.1020000000	perturbations in
0.1020000000	adopted to
0.1020000000	adaptation using
0.1020000000	decoder for
0.1020000000	decoder with
0.1020000000	decoder to
0.1020000000	efficiently as
0.1020000000	challenge and
0.1020000000	optimum of
0.1020000000	dnn and
0.1020000000	efficiently to
0.1020000000	dependencies of
0.1020000000	recognize and
0.1020000000	acquired for
0.1020000000	established in
0.1020000000	swarm and
0.1020000000	recognize different
0.1020000000	formalisms for
0.1020000000	received by
0.1020000000	paradigm and
0.1020000000	population to
0.1020000000	squares and
0.1020000000	actions on
0.1020000000	cameras with
0.1020000000	compression with
0.1020000000	business and
0.1020000000	formula to
0.1020000000	additionally in
0.1020000000	consistency across
0.1020000000	analyze various
0.1020000000	devices and
0.1020000000	analyze two
0.1020000000	directly using
0.1020000000	class from
0.1020000000	additionally to
0.1020000000	practice however
0.1020000000	explore various
0.1020000000	instance for
0.1020000000	instance with
0.1020000000	instance from
0.1020000000	scarcity of
0.1020000000	names and
0.1020000000	names of
0.1020000000	extract and
0.1020000000	extract more
0.1020000000	bagging and
0.1020000000	neighborhoods and
0.1020000000	efficiently use
0.1020000000	efficiently find
0.1020000000	efficiently with
0.1020000000	efficiently in
0.1020000000	clothing and
0.1020000000	efficiently than
0.1020000000	explored as
0.1020000000	explored and
0.1020000000	explored to
0.1020000000	explored by
0.1020000000	explored for
0.1020000000	smaller and
0.1020000000	concepts by
0.1020000000	presented on
0.1020000000	concepts or
0.1020000000	benchmarks with
0.1020000000	adaptation in
0.1020000000	data respectively
0.1020000000	world to
0.1020000000	world in
0.1020000000	unique to
0.1020000000	insight in
0.1020000000	insight to
0.1020000000	insight on
0.1020000000	possibilities and
0.1020000000	directly by
0.1020000000	boxes in
0.1020000000	boxes of
0.1020000000	boxes for
0.1020000000	treated in
0.1020000000	streams and
0.1020000000	places and
0.1020000000	efficiently from
0.1020000000	generally used
0.1020000000	generally to
0.1020000000	efficiently for
0.1020000000	conclusions of
0.1020000000	conclusions from
0.1020000000	functions under
0.1020000000	proven for
0.1020000000	population with
0.1020000000	individuals to
0.1020000000	efficacy on
0.1020000000	efficiently using
0.1020000000	efficiently on
0.1020000000	utility for
0.1020000000	benchmarks of
0.1020000000	benchmarks from
0.1020000000	benchmarks in
0.1020000000	modular and
0.1020000000	largest and
0.1020000000	adaptation on
0.1020000000	pose or
0.1020000000	family and
0.1020000000	data often
0.1020000000	noise while
0.1020000000	modifications and
0.1020000000	robust across
0.1020000000	decrease of
0.1020000000	operators in
0.1020000000	class or
0.1020000000	class in
0.1020000000	class with
0.1020000000	systematic and
0.1020000000	possibilities of
0.1020000000	summarization system
0.1020000000	conditional mean
0.1020000000	conditional value
0.1020000000	devices for
0.1020000000	issues to
0.1020000000	issues for
0.1020000000	issues with
0.1020000000	faithful to
0.1020000000	coherent and
0.1020000000	data while
0.1020000000	identity of
0.1020000000	identity in
0.1020000000	consistency between
0.1020000000	proposes to
0.1020000000	attacks to
0.1020000000	proposes and
0.1020000000	proposes two
0.1020000000	photographs and
0.1020000000	photographs of
0.1020000000	lexicon for
0.1020000000	attacks in
0.1020000000	leveraged for
0.1020000000	concepts for
0.1020000000	specific needs
0.1020000000	specific way
0.1020000000	specific or
0.1020000000	magnitudes of
0.1020000000	specific for
0.1020000000	specific and
0.1020000000	dependencies on
0.1020000000	differences of
0.1020000000	observations or
0.1020000000	observations into
0.1020000000	observations with
0.1020000000	observations about
0.1020000000	observations on
0.1020000000	observations in
0.1020000000	included to
0.1020000000	perturbations on
0.1020000000	perturbations to
0.1020000000	perturbations for
0.1020000000	concepts to
0.1020000000	observations using
0.1020000000	creating and
0.1020000000	creating such
0.1020000000	to enlarge
0.1020000000	segment and
0.1020000000	intersection of
0.1020000000	unique and
0.1020000000	universal in
0.1020000000	actions with
0.1020000000	step as
0.1020000000	actions as
0.1020000000	step for
0.1020000000	step using
0.1020000000	takes to
0.1020000000	takes only
0.1020000000	optimum in
0.1020000000	detections and
0.1020000000	generator for
0.1020000000	conventional and
0.1020000000	data given
0.1020000000	arts in
0.1020000000	tools to
0.1020000000	dominance of
0.1020000000	eigenvalue of
0.1020000000	regularization by
0.1020000000	regularization on
0.1020000000	segment of
0.1020000000	measure using
0.1020000000	measure used
0.1020000000	measure such
0.1020000000	measure on
0.1020000000	measure as
0.1020000000	measure by
0.1020000000	artifacts and
0.1020000000	actions of
0.1020000000	actions from
0.1020000000	actions by
0.1020000000	actions or
0.1020000000	universal and
0.1020000000	handle such
0.1020000000	data without
0.1020000000	automatically to
0.1020000000	geometries of
0.1020000000	step with
0.1020000000	data also
0.1020000000	data before
0.1020000000	data alone
0.1020000000	data allows
0.1020000000	data after
0.1020000000	data thus
0.1020000000	data taken
0.1020000000	data well
0.1020000000	data etc
0.1020000000	detector for
0.1020000000	data during
0.1020000000	intent of
0.1020000000	parsers for
0.1020000000	lasso or
0.1020000000	variable and
0.1020000000	variable to
0.1020000000	marginals of
0.1020000000	data under
0.1020000000	generation in
0.1020000000	devices in
0.1020000000	broad and
0.1020000000	leveraged to
0.1020000000	automatically in
0.1020000000	template of
0.1020000000	data come
0.1020000000	approaches while
0.1020000000	data contains
0.1020000000	functions using
0.1020000000	extract from
0.1020000000	template to
0.1020000000	compressed by
0.1020000000	generation with
0.1020000000	conclusions on
0.1020000000	robust than
0.1020000000	efforts of
0.1020000000	application and
0.1020000000	viewpoint of
0.1020000000	to catch
0.1020000000	robust for
0.1020000000	based or
0.1020000000	findings and
0.1020000000	to traverse
0.1020000000	relationships for
0.1020000000	data through
0.1020000000	data about
0.1020000000	phones and
0.1020000000	approaches under
0.1020000000	based ones
0.1020000000	data across
0.1020000000	relationships to
0.1020000000	detector with
0.1020000000	attacks by
0.1020000000	regularization to
0.1020000000	unified and
0.1020000000	conjunctions of
0.1020000000	approaches especially
0.1020000000	approaches mainly
0.1020000000	approaches however
0.1020000000	approaches by
0.1020000000	accelerator for
0.1020000000	input in
0.1020000000	received from
0.1020000000	practice for
0.1020000000	practice of
0.1020000000	to using
0.1020000000	recent and
0.1020000000	data more
0.1020000000	measure from
0.1020000000	generation system
0.1020000000	findings show
0.1020000000	objects under
0.1020000000	sample with
0.1020000000	data available
0.1020000000	functions to
0.1020000000	train very
0.1020000000	paradigm in
0.1020000000	configuration for
0.1020000000	data especially
0.1020000000	application example
0.1020000000	dnn to
0.1020000000	approaches used
0.1020000000	splines and
0.1020000000	approaches namely
0.1020000000	data becomes
0.1020000000	variable in
0.1020000000	measure between
0.1020000000	approaches use
0.1020000000	fit in
0.1020000000	data since
0.1020000000	variable of
0.1020000000	objects at
0.1020000000	lexicon and
0.1020000000	approaches either
0.1020000000	noise for
0.1020000000	deficiencies of
0.1020000000	advance and
0.1020000000	formation in
0.1020000000	sample to
0.1020000000	assignment in
0.1020000000	alternative way
0.1020000000	data over
0.1020000000	dependencies with
0.1020000000	objects for
0.1020000000	challenge on
0.1020000000	findings of
0.1020000000	application as
0.1020000000	to endow
0.1020000000	solve two
0.1020000000	objects without
0.1020000000	operators for
0.1020000000	directly as
0.1020000000	variable or
0.1020000000	spread and
0.1020000000	to steer
0.1020000000	an on
0.1020000000	compression by
0.1020000000	to memorize
0.1020000000	approaches both
0.1020000000	formula and
0.1020000000	easily and
0.1020000000	truth from
0.1020000000	objects within
0.1020000000	train such
0.1020000000	format to
0.1020000000	advance of
0.1020000000	based computer
0.1020000000	leveraged by
0.1020000000	world but
0.1020000000	variable with
0.1020000000	approaches from
0.1020000000	efforts on
0.1020000000	data indicate
0.1020000000	parameter for
0.1020000000	met in
0.1020000000	solve many
0.1020000000	functions into
0.1020000000	aspects in
0.1020000000	world with
0.1020000000	data only
0.1020000000	consist in
0.1020000000	generator to
0.1020000000	variable given
0.1020000000	paradigm to
0.1020000000	practice and
0.1020000000	places in
0.1020000000	application with
0.1020000000	generation on
0.1020000000	to retrain
0.1020000000	prefer to
0.1020000000	streams from
0.1020000000	acquired using
0.1020000000	creating new
0.1020000000	regularization or
0.1020000000	trees for
0.1020000000	transformations on
0.1020000000	approaches but
0.1020000000	based non
0.1020000000	detector by
0.1020000000	compression as
0.1020000000	configuration and
0.1020000000	train on
0.1020000000	assignment for
0.1020000000	fit of
0.1020000000	directly and
0.1020000000	efficacy of
0.1020000000	automatically find
0.1020000000	observations at
0.1020000000	pipeline and
0.1020000000	generation as
0.1020000000	observations by
0.1020000000	data onto
0.1020000000	directly use
0.1020000000	data nor
0.1020000000	template and
0.1020000000	data x
0.1020000000	data so
0.1020000000	comparable and
0.1020000000	intractable for
0.1020000000	to rectify
0.1020000000	actions for
0.1020000000	challenge as
0.1020000000	approaches as
0.1020000000	approaches across
0.1020000000	data both
0.1020000000	efforts and
0.1020000000	transition between
0.1020000000	generation to
0.1020000000	light and
0.1020000000	morphological and
0.1020000000	intractable to
0.1020000000	truth in
0.1020000000	landmarks for
0.1020000000	challenge with
0.1020000000	approaches of
0.1020000000	fit into
0.1020000000	rl with
0.1020000000	illustration of
0.1020000000	input of
0.1020000000	approaches show
0.1020000000	directly into
0.1020000000	angle of
0.1020000000	preprocessing and
0.1020000000	automatically by
0.1020000000	benchmarks to
0.1020000000	easily to
0.1020000000	data comes
0.1020000000	generation by
0.1020000000	robust in
0.1020000000	fit and
0.1020000000	actions using
0.1020000000	fit well
0.1020000000	response and
0.1020000000	significant for
0.1020000000	observations for
0.1020000000	application on
0.1020000000	parameter in
0.1020000000	challenge to
0.1020000000	data however
0.1020000000	generation via
0.1020000000	fit for
0.1020000000	relationships of
0.1020000000	evaluating and
0.1020000000	directly or
0.1020000000	data via
0.1020000000	approaches through
0.1020000000	relationships and
0.1020000000	analyze several
0.1020000000	relationships with
0.1020000000	deblurring and
0.1020000000	response of
0.1020000000	optimum and
0.1020000000	train with
0.1020000000	summarization with
0.1020000000	sample in
0.1020000000	significant changes
0.1020000000	channels of
0.1020000000	solve in
0.1020000000	approaches usually
0.1020000000	parameter value
0.1020000000	approaches like
0.1020000000	compression using
0.1020000000	practice because
0.1020000000	based time
0.1020000000	emotional and
0.1020000000	channels and
0.1020000000	train in
0.1020000000	instance in
0.1020000000	approaches work
0.1020000000	approaches using
0.1020000000	data within
0.1020000000	objects while
0.1020000000	streams with
0.1020000000	parameter k
0.1020000000	based one
0.1020000000	objects like
0.1020000000	analyze in
0.1020000000	world and
0.1020000000	streams in
0.1020000000	directly used
0.1020000000	real or
0.1020000000	real ones
0.1020000000	trackers on
0.1020000000	objects into
0.1020000000	data containing
0.1020000000	world s
0.1020000000	significant in
0.1020000000	world of
0.1020000000	world time
0.1020000000	speedup of
0.1020000000	world as
0.1020000000	pose between
0.1020000000	generator of
0.1020000000	functions on
0.1020000000	reasons to
0.1020000000	findings on
0.1020000000	findings from
0.1020000000	findings with
0.1020000000	findings in
0.1020000000	findings to
0.1020000000	parameter to
0.1020000000	safety of
0.1020000000	parameter changes
0.1020000000	automatically without
0.1020000000	evaluating on
0.1020000000	parsing of
0.1020000000	sample of
0.1020000000	conditional and
0.1020000000	intensity of
0.1020000000	players and
0.1020000000	approaches often
0.1020000000	adaptation by
0.1020000000	established and
0.1020000000	noise by
0.1020000000	conversation and
0.1020000000	analyze and
0.1020000000	noise as
0.1020000000	noise or
0.1020000000	robust with
0.1020000000	noise but
0.1020000000	robust under
0.1020000000	noise using
0.1020000000	takes in
0.1020000000	projection on
0.1020000000	input from
0.1020000000	robust enough
0.1020000000	directly for
0.1020000000	directly without
0.1020000000	established through
0.1020000000	challenge because
0.1020000000	formula of
0.1020000000	freedom of
0.1020000000	declarative and
0.1020000000	practice to
0.1020000000	practice in
0.1020000000	practice as
0.1020000000	solve for
0.1020000000	adoption in
0.1020000000	unified way
0.1020000000	male and
0.1020000000	issues by
0.1020000000	significant and
0.1020000000	alternative for
0.1020000000	operators on
0.1020000000	instance to
0.1020000000	data than
0.1020000000	perspectives for
0.1020000000	input or
0.1020000000	format and
0.1020000000	analogy with
0.1020000000	prices of
0.1020000000	input using
0.1020000000	coherent with
0.1020000000	explore in
0.1020000000	solve and
0.1020000000	trees using
0.1020000000	speedup on
0.1020000000	input by
0.1020000000	differences from
0.1020000000	indicator for
0.1020000000	explore two
0.1020000000	consistency for
0.1020000000	explore new
0.1020000000	player in
0.1020000000	words used
0.1020000000	speedup and
0.1020000000	assignment and
0.1020000000	dnn with
0.1020000000	treatment and
0.1020000000	yield more
0.1020000000	challenge by
0.1020000000	challenge at
0.1020000000	behaviors from
0.1020000000	differences and
0.1020000000	treatment for
0.1020000000	objects as
0.1020000000	insight of
0.1020000000	automatically and
0.1020000000	alternative and
0.1020000000	automatically using
0.1020000000	input for
0.1020000000	input into
0.1020000000	analyze different
0.1020000000	explore and
0.1020000000	benchmarks on
0.1020000000	functions from
0.1020000000	functions or
0.1020000000	functions while
0.1020000000	generally more
0.1020000000	explore three
0.1020000000	explore more
0.1020000000	explore different
0.1020000000	explore several
0.1020000000	objects on
0.1020000000	events or
0.1020000000	summarization and
0.1020000000	solve various
0.1020000000	behaviors and
0.1020000000	imbalance in
0.1020000000	data like
0.1020000000	learners for
0.1020000000	artifacts in
0.1020000000	tools used
0.1020000000	tools of
0.1020000000	intractable and
0.1020000000	intractable in
0.1020000000	abilities to
0.1020000000	abilities and
0.1020000000	outlined in
0.1020000000	store and
0.1020000000	constructions of
0.1020000000	light of
0.1020000000	projection in
0.1020000000	calls and
0.1020000000	conditioning of
0.1020000000	conditioning in
0.1020000000	modifications in
0.1020000000	syntactic or
0.1020000000	freedom to
0.1020000000	freedom in
0.1020000000	merits of
0.1020000000	merits and
0.1020000000	players in
0.1020000000	format for
0.1020000000	format of
0.1020000000	simply by
0.1020000000	membership of
0.1020000000	predicates and
0.1020000000	imposed to
0.1020000000	learners in
0.1020000000	learners and
0.1020000000	fall in
0.1020000000	assigned by
0.1020000000	distillation for
0.1020000000	manipulation with
0.1020000000	reflectance and
0.1020000000	partition and
0.1020000000	setup of
0.1020000000	setup and
0.1020000000	intersection and
0.1020000000	perceived as
0.1020000000	perceived by
0.1020000000	counts and
0.1020000000	counts of
0.1020000000	counts in
0.1020000000	attained by
0.1020000000	helpful to
0.1020000000	arts and
0.1020000000	querying and
0.1020000000	availability and
0.1020000000	digital and
0.1020000000	viewpoint and
0.1020000000	spread of
0.1020000000	spread in
0.1020000000	projection to
0.1020000000	projection and
0.1020000000	projection for
0.1020000000	substitute for
0.1020000000	age of
0.1020000000	pipeline of
0.1020000000	pipeline to
0.1020000000	pipeline with
0.1020000000	transforms and
0.1020000000	influences of
0.1020000000	closest to
0.1020000000	centroid of
0.1020000000	hundreds to
0.1020000000	hundreds or
0.1020000000	averages of
0.1020000000	detector in
0.1020000000	explained and
0.1020000000	explained as
0.1020000000	angle and
0.1020000000	trace of
0.1020000000	reflection and
0.1020000000	smoothing of
0.1020000000	camera with
0.1020000000	camera to
0.1020000000	camera system
0.1020000000	camera for
0.1020000000	camera in
0.1020000000	camera s
0.1020000000	cover and
0.1020000000	perspectives and
0.1020000000	perspectives of
0.1020000000	perspectives on
0.1020000000	player and
0.1020000000	vote for
0.1020000000	migration of
0.1020000000	envelope of
0.1020000000	genre and
0.1020000000	landmarks and
0.1020000000	landmarks on
0.1020000000	cameras in
0.1020000000	cameras for
0.1020000000	submissions to
0.1020000000	breakthrough in
0.1020000000	trackers in
0.1020000000	formula in
0.1020000000	prevalence of
0.1020000000	beliefs and
0.1020000000	portuguese and
0.1020000000	union of
0.1020000000	neighborhoods of
0.1020000000	theme of
0.1020000000	command and
0.1020000000	prices in
0.1020000000	prices and
0.1020000000	standards for
0.1020000000	standards and
0.1020000000	continuity of
0.1020000000	continuity and
0.1020000000	continuity in
0.1020000000	raised in
0.1020000000	astronomy and
0.1020000000	inequalities and
0.1020000000	elicitation in
0.1020000000	formula for
0.1020000000	completeness and
0.1020000000	randomness in
0.1020000000	randomness and
0.1020000000	city of
0.1020000000	covariates and
0.1020000000	reflection of
0.1020000000	slices and
0.1020000000	combining different
0.1020000000	combining two
0.1020000000	combining with
0.1020000000	vectors on
0.1020000000	content with
0.1020000000	manner of
0.1020000000	manner and
0.1020000000	manner by
0.1020000000	manner from
0.1020000000	updates in
0.1020000000	interpretable as
0.1020000000	decades and
0.1020000000	mass and
0.1020000000	tool allows
0.1020000000	maximization with
0.1020000000	dataset on
0.1020000000	approach used
0.1020000000	realized as
0.1020000000	total of
0.1020000000	outputs to
0.1020000000	approach as
0.1020000000	baselines in
0.1020000000	baselines by
0.1020000000	baselines with
0.1020000000	consistent across
0.1020000000	consistent way
0.1020000000	consistent for
0.1020000000	tasks as
0.1020000000	target to
0.1020000000	constructed with
0.1020000000	constructed through
0.1020000000	constructed for
0.1020000000	constructed as
0.1020000000	constructed and
0.1020000000	constructed to
0.1020000000	values to
0.1020000000	tensor to
0.1020000000	modes in
0.1020000000	images under
0.1020000000	capacity in
0.1020000000	logs of
0.1020000000	assessed using
0.1020000000	assessed in
0.1020000000	introducing new
0.1020000000	deployed for
0.1020000000	constructed in
0.1020000000	characters from
0.1020000000	content on
0.1020000000	density for
0.1020000000	produced from
0.1020000000	meaning and
0.1020000000	likelihood or
0.1020000000	rates to
0.1020000000	filtering for
0.1020000000	poses of
0.1020000000	expectation of
0.1020000000	weighted and
0.1020000000	acquisition time
0.1020000000	demonstrate on
0.1020000000	represented and
0.1020000000	missing at
0.1020000000	missing from
0.1020000000	missing in
0.1020000000	experiments of
0.1020000000	provide enough
0.1020000000	cell and
0.1020000000	success on
0.1020000000	success at
0.1020000000	success to
0.1020000000	unstructured and
0.1020000000	behaviour with
0.1020000000	spoken by
0.1020000000	suggested as
0.1020000000	suggested in
0.1020000000	selection from
0.1020000000	selection with
0.1020000000	losses for
0.1020000000	premise of
0.1020000000	selection by
0.1020000000	location in
0.1020000000	images during
0.1020000000	fusion by
0.1020000000	fusion using
0.1020000000	fusion for
0.1020000000	capacity for
0.1020000000	individually and
0.1020000000	likelihood with
0.1020000000	task especially
0.1020000000	approach taken
0.1020000000	incorporate new
0.1020000000	equal or
0.1020000000	interpretability by
0.1020000000	solely from
0.1020000000	filtering in
0.1020000000	identification as
0.1020000000	identification with
0.1020000000	studies using
0.1020000000	training but
0.1020000000	helping to
0.1020000000	task or
0.1020000000	managed to
0.1020000000	searching over
0.1020000000	intuition of
0.1020000000	circuit and
0.1020000000	uncertainties and
0.1020000000	risk for
0.1020000000	success by
0.1020000000	shift between
0.1020000000	limitation in
0.1020000000	physical system
0.1020000000	component with
0.1020000000	component to
0.1020000000	weighted by
0.1020000000	modified by
0.1020000000	employed on
0.1020000000	labelled with
0.1020000000	outputs from
0.1020000000	vectors or
0.1020000000	acceleration of
0.1020000000	combined by
0.1020000000	combined in
0.1020000000	contribution and
0.1020000000	fusion to
0.1020000000	understand and
0.1020000000	consistent in
0.1020000000	logs and
0.1020000000	add more
0.1020000000	add new
0.1020000000	add to
0.1020000000	analysed in
0.1020000000	project and
0.1020000000	rates on
0.1020000000	filtering to
0.1020000000	filtering of
0.1020000000	filtering using
0.1020000000	formulation to
0.1020000000	power to
0.1020000000	rnn s
0.1020000000	arranged in
0.1020000000	features through
0.1020000000	vocabulary of
0.1020000000	deployed to
0.1020000000	address several
0.1020000000	manner without
0.1020000000	content from
0.1020000000	dynamic of
0.1020000000	dynamic system
0.1020000000	modes and
0.1020000000	requires o
0.1020000000	requires less
0.1020000000	requires more
0.1020000000	requires much
0.1020000000	requires many
0.1020000000	working at
0.1020000000	working of
0.1020000000	static or
0.1020000000	requires very
0.1020000000	tasks from
0.1020000000	constant of
0.1020000000	type system
0.1020000000	type in
0.1020000000	constant and
0.1020000000	provide novel
0.1020000000	specifically in
0.1020000000	uncertainties in
0.1020000000	description for
0.1020000000	formulation allows
0.1020000000	idea and
0.1020000000	complicated and
0.1020000000	idea for
0.1020000000	success and
0.1020000000	core of
0.1020000000	resolutions of
0.1020000000	density in
0.1020000000	applied only
0.1020000000	applied at
0.1020000000	applied by
0.1020000000	applied and
0.1020000000	applied as
0.1020000000	mathematical and
0.1020000000	related but
0.1020000000	requires to
0.1020000000	introducing two
0.1020000000	spoken in
0.1020000000	runtime for
0.1020000000	idea in
0.1020000000	comments on
0.1020000000	idea to
0.1020000000	images across
0.1020000000	provide for
0.1020000000	applied with
0.1020000000	prove in
0.1020000000	relations with
0.1020000000	connectivity between
0.1020000000	connectivity in
0.1020000000	connectivity of
0.1020000000	bleu and
0.1020000000	assessment and
0.1020000000	unit in
0.1020000000	unit and
0.1020000000	updates for
0.1020000000	updates of
0.1020000000	rates as
0.1020000000	rates in
0.1020000000	rates than
0.1020000000	rates with
0.1020000000	rates by
0.1020000000	interpretability in
0.1020000000	captioning with
0.1020000000	realized in
0.1020000000	meaning from
0.1020000000	translation between
0.1020000000	translation using
0.1020000000	functionality of
0.1020000000	identification for
0.1020000000	training example
0.1020000000	power by
0.1020000000	power in
0.1020000000	power for
0.1020000000	identification by
0.1020000000	demonstrated for
0.1020000000	addressed using
0.1020000000	dataset without
0.1020000000	formulation in
0.1020000000	studies for
0.1020000000	external and
0.1020000000	task show
0.1020000000	power than
0.1020000000	prove useful
0.1020000000	backpropagation for
0.1020000000	making of
0.1020000000	making under
0.1020000000	backpropagation and
0.1020000000	making by
0.1020000000	making in
0.1020000000	specifically given
0.1020000000	space via
0.1020000000	space by
0.1020000000	scores with
0.1020000000	characters using
0.1020000000	characters of
0.1020000000	characters by
0.1020000000	characters with
0.1020000000	imagery in
0.1020000000	address three
0.1020000000	features via
0.1020000000	address two
0.1020000000	address such
0.1020000000	address in
0.1020000000	choice in
0.1020000000	choice to
0.1020000000	adversarial and
0.1020000000	making such
0.1020000000	cognitive and
0.1020000000	measures between
0.1020000000	token in
0.1020000000	assessment in
0.1020000000	poses from
0.1020000000	growing in
0.1020000000	scaling to
0.1020000000	errors with
0.1020000000	type or
0.1020000000	poses in
0.1020000000	measures as
0.1020000000	tasks even
0.1020000000	aggregation and
0.1020000000	provide in
0.1020000000	provide two
0.1020000000	provide such
0.1020000000	ensemble for
0.1020000000	provide very
0.1020000000	provide several
0.1020000000	tool with
0.1020000000	enhancement and
0.1020000000	tool of
0.1020000000	tool to
0.1020000000	scaling in
0.1020000000	strength in
0.1020000000	realized with
0.1020000000	realized using
0.1020000000	complicated to
0.1020000000	intuition and
0.1020000000	rest of
0.1020000000	patient s
0.1020000000	authors and
0.1020000000	space rather
0.1020000000	space without
0.1020000000	space into
0.1020000000	approach toward
0.1020000000	target of
0.1020000000	identification via
0.1020000000	analogies and
0.1020000000	quality while
0.1020000000	key in
0.1020000000	functionality and
0.1020000000	key value
0.1020000000	release of
0.1020000000	questions on
0.1020000000	task because
0.1020000000	errors to
0.1020000000	engineering for
0.1020000000	engineering of
0.1020000000	engineering or
0.1020000000	introduced here
0.1020000000	scores to
0.1020000000	values as
0.1020000000	suggested to
0.1020000000	scores between
0.1020000000	character of
0.1020000000	providing new
0.1020000000	total time
0.1020000000	captioning and
0.1020000000	combined and
0.1020000000	features without
0.1020000000	dataset such
0.1020000000	manner as
0.1020000000	features across
0.1020000000	features between
0.1020000000	proximity of
0.1020000000	manner using
0.1020000000	graph as
0.1020000000	graph from
0.1020000000	similarity among
0.1020000000	provide good
0.1020000000	incorporate such
0.1020000000	estimating and
0.1020000000	science to
0.1020000000	graph for
0.1020000000	space than
0.1020000000	space while
0.1020000000	straightforward and
0.1020000000	vocabulary for
0.1020000000	exact or
0.1020000000	combined to
0.1020000000	graph over
0.1020000000	task s
0.1020000000	concept and
0.1020000000	task without
0.1020000000	experiment of
0.1020000000	guarantees but
0.1020000000	outputs with
0.1020000000	formalism and
0.1020000000	numerical example
0.1020000000	images contain
0.1020000000	demonstrate and
0.1020000000	margin of
0.1020000000	approach while
0.1020000000	tasks because
0.1020000000	images show
0.1020000000	combined using
0.1020000000	assessment using
0.1020000000	outputs for
0.1020000000	scores and
0.1020000000	increases as
0.1020000000	experiments also
0.1020000000	task while
0.1020000000	physical and
0.1020000000	ensemble system
0.1020000000	reason over
0.1020000000	curvature and
0.1020000000	locally and
0.1020000000	making with
0.1020000000	images via
0.1020000000	conflict in
0.1020000000	reference and
0.1020000000	updated by
0.1020000000	lines in
0.1020000000	space as
0.1020000000	large time
0.1020000000	studies with
0.1020000000	rnns in
0.1020000000	locally on
0.1020000000	large but
0.1020000000	experiment using
0.1020000000	experiment in
0.1020000000	ensemble and
0.1020000000	images given
0.1020000000	margin between
0.1020000000	coefficients in
0.1020000000	images more
0.1020000000	specifically on
0.1020000000	groups with
0.1020000000	finally by
0.1020000000	addressed with
0.1020000000	component for
0.1020000000	dataset available
0.1020000000	aggregation to
0.1020000000	quality but
0.1020000000	optimal way
0.1020000000	training using
0.1020000000	training or
0.1020000000	visualisation of
0.1020000000	task over
0.1020000000	elegant and
0.1020000000	translation or
0.1020000000	training while
0.1020000000	likelihood in
0.1020000000	quickly and
0.1020000000	mechanisms to
0.1020000000	mechanisms in
0.1020000000	resource and
0.1020000000	reach of
0.1020000000	experiment for
0.1020000000	experiment and
0.1020000000	adequate for
0.1020000000	images along
0.1020000000	proximity and
0.1020000000	purpose to
0.1020000000	demonstrate using
0.1020000000	navigation of
0.1020000000	specifically with
0.1020000000	combining several
0.1020000000	concept in
0.1020000000	task from
0.1020000000	experiments to
0.1020000000	dynamic and
0.1020000000	reason with
0.1020000000	unit of
0.1020000000	purpose and
0.1020000000	finally i
0.1020000000	represented through
0.1020000000	computationally very
0.1020000000	losses in
0.1020000000	outputs and
0.1020000000	experiments as
0.1020000000	marked by
0.1020000000	patient and
0.1020000000	rnn as
0.1020000000	enables more
0.1020000000	demonstrate in
0.1020000000	relations by
0.1020000000	dataset by
0.1020000000	independent and
0.1020000000	large p
0.1020000000	provide more
0.1020000000	enables to
0.1020000000	performs on
0.1020000000	divergence to
0.1020000000	classify new
0.1020000000	related by
0.1020000000	updates and
0.1020000000	updates with
0.1020000000	stable in
0.1020000000	optimal o
0.1020000000	rnns for
0.1020000000	dataset in
0.1020000000	increases and
0.1020000000	images thus
0.1020000000	unit to
0.1020000000	agents using
0.1020000000	features not
0.1020000000	rnn for
0.1020000000	experiment to
0.1020000000	dataset while
0.1020000000	aided by
0.1020000000	bottleneck of
0.1020000000	relations using
0.1020000000	space on
0.1020000000	experience and
0.1020000000	images while
0.1020000000	optimality and
0.1020000000	space so
0.1020000000	groups in
0.1020000000	manner to
0.1020000000	space through
0.1020000000	questions with
0.1020000000	optimal under
0.1020000000	optimal but
0.1020000000	images per
0.1020000000	choice and
0.1020000000	tasks within
0.1020000000	task than
0.1020000000	formulation as
0.1020000000	images only
0.1020000000	defining and
0.1020000000	training such
0.1020000000	demonstrate two
0.1020000000	scores over
0.1020000000	approach however
0.1020000000	aggregation for
0.1020000000	quality with
0.1020000000	converge in
0.1020000000	experience in
0.1020000000	relations into
0.1020000000	dataset into
0.1020000000	features together
0.1020000000	features among
0.1020000000	success for
0.1020000000	studies show
0.1020000000	resource in
0.1020000000	performs in
0.1020000000	features along
0.1020000000	expense of
0.1020000000	features while
0.1020000000	evolving in
0.1020000000	training by
0.1020000000	emotion and
0.1020000000	features than
0.1020000000	produced and
0.1020000000	maximization for
0.1020000000	features during
0.1020000000	finally show
0.1020000000	metadata and
0.1020000000	suggested for
0.1020000000	features under
0.1020000000	log of
0.1020000000	enables better
0.1020000000	approach against
0.1020000000	dataset or
0.1020000000	capacity to
0.1020000000	likelihood to
0.1020000000	strength and
0.1020000000	numerical and
0.1020000000	mask of
0.1020000000	tasks while
0.1020000000	thinking and
0.1020000000	relations within
0.1020000000	trainable and
0.1020000000	related with
0.1020000000	sparsity or
0.1020000000	position with
0.1020000000	approach at
0.1020000000	expectation and
0.1020000000	current work
0.1020000000	tasks respectively
0.1020000000	tagger and
0.1020000000	scores in
0.1020000000	relations as
0.1020000000	demonstrate better
0.1020000000	predictors and
0.1020000000	provide further
0.1020000000	features over
0.1020000000	dataset respectively
0.1020000000	cell in
0.1020000000	deformation and
0.1020000000	reason to
0.1020000000	responses for
0.1020000000	experiments both
0.1020000000	mass of
0.1020000000	interpretable and
0.1020000000	tasks without
0.1020000000	tasks over
0.1020000000	tasks but
0.1020000000	quality on
0.1020000000	space such
0.1020000000	dataset used
0.1020000000	prove to
0.1020000000	searching in
0.1020000000	vectors using
0.1020000000	large changes
0.1020000000	features only
0.1020000000	features within
0.1020000000	tasks especially
0.1020000000	sparsity for
0.1020000000	questions by
0.1020000000	relations for
0.1020000000	agents of
0.1020000000	dataset as
0.1020000000	approach more
0.1020000000	independent interest
0.1020000000	translation into
0.1020000000	core and
0.1020000000	errors or
0.1020000000	images used
0.1020000000	performs best
0.1020000000	performs at
0.1020000000	images before
0.1020000000	optimality for
0.1020000000	stable with
0.1020000000	combining of
0.1020000000	approach only
0.1020000000	large to
0.1020000000	tasks at
0.1020000000	derived through
0.1020000000	questions like
0.1020000000	demonstrate by
0.1020000000	errors by
0.1020000000	approach via
0.1020000000	current best
0.1020000000	memories and
0.1020000000	responses in
0.1020000000	quality using
0.1020000000	training in
0.1020000000	matlab and
0.1020000000	relations of
0.1020000000	science of
0.1020000000	dataset at
0.1020000000	optimal and
0.1020000000	optimal if
0.1020000000	dataset but
0.1020000000	notes on
0.1020000000	version in
0.1020000000	performs as
0.1020000000	quality to
0.1020000000	approximation via
0.1020000000	margin on
0.1020000000	values on
0.1020000000	finally for
0.1020000000	tasks by
0.1020000000	increases in
0.1020000000	characters or
0.1020000000	specifically to
0.1020000000	bottleneck in
0.1020000000	task by
0.1020000000	task but
0.1020000000	costly and
0.1020000000	resource to
0.1020000000	task since
0.1020000000	demonstrate for
0.1020000000	reason on
0.1020000000	rise to
0.1020000000	enhancement for
0.1020000000	converge and
0.1020000000	integration for
0.1020000000	large or
0.1020000000	similarity using
0.1020000000	authors in
0.1020000000	interpretable than
0.1020000000	mdps to
0.1020000000	responses and
0.1020000000	manner in
0.1020000000	finally to
0.1020000000	finally as
0.1020000000	demonstrate both
0.1020000000	experiments for
0.1020000000	experiments across
0.1020000000	experiments over
0.1020000000	passive and
0.1020000000	demonstrate through
0.1020000000	demonstrate with
0.1020000000	demonstrate several
0.1020000000	related and
0.1020000000	providing more
0.1020000000	making for
0.1020000000	functioning of
0.1020000000	appealing for
0.1020000000	mask and
0.1020000000	filtering with
0.1020000000	curves and
0.1020000000	derived to
0.1020000000	sparsity on
0.1020000000	sparsity to
0.1020000000	vocabularies and
0.1020000000	translation on
0.1020000000	tasks or
0.1020000000	similarity as
0.1020000000	similarity with
0.1020000000	searching and
0.1020000000	quality as
0.1020000000	translation from
0.1020000000	produced in
0.1020000000	tasks namely
0.1020000000	approach or
0.1020000000	optimal with
0.1020000000	quality by
0.1020000000	quality at
0.1020000000	agents or
0.1020000000	quality or
0.1020000000	department of
0.1020000000	selection via
0.1020000000	quality over
0.1020000000	outputs in
0.1020000000	finally in
0.1020000000	masks for
0.1020000000	space but
0.1020000000	key for
0.1020000000	performs much
0.1020000000	addressed and
0.1020000000	target in
0.1020000000	rise in
0.1020000000	graph such
0.1020000000	approach within
0.1020000000	similarity or
0.1020000000	component in
0.1020000000	transitions and
0.1020000000	making and
0.1020000000	description in
0.1020000000	finite and
0.1020000000	scripts and
0.1020000000	questions in
0.1020000000	questions of
0.1020000000	images on
0.1020000000	computationally much
0.1020000000	contribution in
0.1020000000	images at
0.1020000000	images through
0.1020000000	bottleneck for
0.1020000000	images because
0.1020000000	images than
0.1020000000	images usually
0.1020000000	images respectively
0.1020000000	features as
0.1020000000	fusion in
0.1020000000	rise of
0.1020000000	vectors into
0.1020000000	concept to
0.1020000000	values with
0.1020000000	task into
0.1020000000	values over
0.1020000000	values or
0.1020000000	api for
0.1020000000	values at
0.1020000000	values but
0.1020000000	missing and
0.1020000000	references to
0.1020000000	derived as
0.1020000000	derived and
0.1020000000	likelihood for
0.1020000000	motivated from
0.1020000000	imagery of
0.1020000000	missing or
0.1020000000	vectors as
0.1020000000	motivated to
0.1020000000	representing different
0.1020000000	representing and
0.1020000000	authors of
0.1020000000	merit of
0.1020000000	spanish and
0.1020000000	updated with
0.1020000000	agents into
0.1020000000	quality than
0.1020000000	content but
0.1020000000	enhanced with
0.1020000000	acquisition in
0.1020000000	modified to
0.1020000000	modified and
0.1020000000	studies to
0.1020000000	approach but
0.1020000000	large part
0.1020000000	identification on
0.1020000000	approach also
0.1020000000	approach from
0.1020000000	approach first
0.1020000000	approach without
0.1020000000	approach gives
0.1020000000	approach both
0.1020000000	identification from
0.1020000000	locations on
0.1020000000	employed and
0.1020000000	groups to
0.1020000000	space between
0.1020000000	responses of
0.1020000000	introduced into
0.1020000000	relatedness and
0.1020000000	selection as
0.1020000000	schema for
0.1020000000	configurations for
0.1020000000	selection on
0.1020000000	schema and
0.1020000000	animals and
0.1020000000	large in
0.1020000000	errors from
0.1020000000	responses with
0.1020000000	spoken and
0.1020000000	optimal or
0.1020000000	optimal one
0.1020000000	finally using
0.1020000000	scaling with
0.1020000000	approach through
0.1020000000	subgraph of
0.1020000000	connectivity and
0.1020000000	features alone
0.1020000000	theoretic and
0.1020000000	configurations and
0.1020000000	configurations in
0.1020000000	drift in
0.1020000000	converge at
0.1020000000	quickly as
0.1020000000	valuable in
0.1020000000	lesions and
0.1020000000	integration in
0.1020000000	integration between
0.1020000000	integration into
0.1020000000	integration with
0.1020000000	concept for
0.1020000000	concept by
0.1020000000	locations with
0.1020000000	maximization and
0.1020000000	projected to
0.1020000000	disadvantages of
0.1020000000	divergence of
0.1020000000	divergence and
0.1020000000	divergence from
0.1020000000	divergence with
0.1020000000	correcting for
0.1020000000	approximation in
0.1020000000	approximation using
0.1020000000	approximation by
0.1020000000	fed with
0.1020000000	balancing of
0.1020000000	extremely well
0.1020000000	guarantees and
0.1020000000	formulation with
0.1020000000	reference for
0.1020000000	intervals and
0.1020000000	greedy and
0.1020000000	choice between
0.1020000000	experience to
0.1020000000	experience of
0.1020000000	experience with
0.1020000000	appealing to
0.1020000000	appealing in
0.1020000000	huge and
0.1020000000	trials and
0.1020000000	pixel in
0.1020000000	pixel value
0.1020000000	pixel by
0.1020000000	grid of
0.1020000000	grid and
0.1020000000	learnability of
0.1020000000	construction for
0.1020000000	conflict with
0.1020000000	pursuit of
0.1020000000	decades of
0.1020000000	transitions of
0.1020000000	transitions in
0.1020000000	faced in
0.1020000000	preparation and
0.1020000000	exchange of
0.1020000000	tensorflow and
0.1020000000	intended as
0.1020000000	imagery with
0.1020000000	imagery and
0.1020000000	regimes of
0.1020000000	heavily on
0.1020000000	wisdom of
0.1020000000	holds in
0.1020000000	optimality in
0.1020000000	guarantees as
0.1020000000	guarantees in
0.1020000000	guarantees with
0.1020000000	guarantees under
0.1020000000	runtime and
0.1020000000	runtime of
0.1020000000	updated and
0.1020000000	updated in
0.1020000000	mask for
0.1020000000	shift and
0.1020000000	shift from
0.1020000000	shift in
0.1020000000	predictors to
0.1020000000	predictors for
0.1020000000	predictors of
0.1020000000	predictors in
0.1020000000	predictors with
0.1020000000	masks and
0.1020000000	qualities of
0.1020000000	errors on
0.1020000000	errors for
0.1020000000	stable to
0.1020000000	measures on
0.1020000000	graphics and
0.1020000000	accumulation of
0.1020000000	topological and
0.1020000000	unstable and
0.1020000000	curvature of
0.1020000000	approached by
0.1020000000	residual and
0.1020000000	acceleration and
0.1020000000	measurements in
0.1020000000	measurements to
0.1020000000	measurements from
0.1020000000	measurements with
0.1020000000	measurements on
0.1020000000	measurements using
0.1020000000	measurements for
0.1020000000	measurements as
0.1020000000	scaling of
0.1020000000	maximization in
0.1020000000	delay in
0.1020000000	delay and
0.1020000000	examined for
0.1020000000	examined in
0.1020000000	assessment for
0.1020000000	deformation of
0.1020000000	premise and
0.1020000000	formulae for
0.1020000000	filling in
0.1020000000	started to
0.1020000000	repositories of
0.1020000000	biomedical and
0.1020000000	relatedness of
0.1020000000	emotion in
0.1020000000	snapshot of
0.1020000000	gps to
0.1020000000	gps and
0.1020000000	fluctuations in
0.1020000000	fluctuations of
0.1020000000	indispensable for
0.1020000000	balancing and
0.1020000000	retrieved by
0.1020000000	adequacy of
0.1020000000	coefficients for
0.1020000000	coefficients to
0.1020000000	coefficients and
0.1020000000	fitness and
0.1020000000	claimed to
0.1020000000	valuable to
0.1020000000	lr and
0.1020000000	sites in
0.1020000000	comments and
0.1020000000	ready to
0.1020000000	chunking and
0.1020000000	proximity to
0.1020000000	corrections to
0.1020000000	behaviour in
0.1020000000	behaviour and
0.1020000000	enhancement in
0.1020000000	enhancement using
0.1020000000	square and
0.1020000000	square of
0.1020000000	assistance of
0.1020000000	annealing and
0.1020000000	transmission of
0.1020000000	lesions in
0.1020000000	references in
0.1020000000	imagery from
0.1020000000	imagery using
0.1020000000	host of
0.1020000000	eeg and
0.1020000000	assessment by
0.1020000000	resolutions and
0.1020000000	curves with
0.1020000000	curves in
0.1020000000	healthy and
0.1020000000	classifications of
0.1020000000	classifications and
0.1020000000	supported in
0.1020000000	versatility of
0.1020000000	versatility and
0.1020000000	transmission and
0.1020000000	formalism to
0.1020000000	formalism of
0.1020000000	saving and
0.1020000000	keypoints and
0.1020000000	keypoints in
0.1020000000	ssim and
0.1020000000	pros and
0.1020000000	providers and
0.1020000000	pairs as
0.1020000000	relaxation for
0.1020000000	svms with
0.1020000000	categorization using
0.1020000000	extractor for
0.1020000000	reconstructions from
0.1020000000	cluster of
0.1020000000	formulas of
0.1020000000	formulas for
0.1020000000	reductions of
0.1020000000	clean and
0.1020000000	university of
0.1020000000	shapes of
0.1020000000	shapes as
0.1020000000	abstract and
0.1020000000	mappings from
0.1020000000	restriction on
0.1020000000	restriction of
0.1020000000	increasingly more
0.1020000000	inequality for
0.1020000000	composition and
0.1020000000	priors into
0.1020000000	priors over
0.1020000000	priors in
0.1020000000	team of
0.1020000000	classifier as
0.1020000000	indicators and
0.1020000000	recipe for
0.1020000000	extracting and
0.1020000000	asymptotic and
0.1020000000	gap in
0.1020000000	exploring different
0.1020000000	conjunction of
0.1020000000	scenes from
0.1020000000	plausibility of
0.1020000000	relation with
0.1020000000	tags for
0.1020000000	evolution to
0.1020000000	brain s
0.1020000000	scene from
0.1020000000	reformulated in
0.1020000000	patches to
0.1020000000	patches as
0.1020000000	templates for
0.1020000000	hypotheses and
0.1020000000	computing in
0.1020000000	computing time
0.1020000000	choose from
0.1020000000	choose to
0.1020000000	localized in
0.1020000000	subproblems and
0.1020000000	choose between
0.1020000000	evolution for
0.1020000000	diversity for
0.1020000000	regions while
0.1020000000	regions using
0.1020000000	regions from
0.1020000000	regions as
0.1020000000	regions for
0.1020000000	activations for
0.1020000000	priors from
0.1020000000	neuron in
0.1020000000	exploit such
0.1020000000	initialization for
0.1020000000	gap with
0.1020000000	gap by
0.1020000000	perform in
0.1020000000	comparably to
0.1020000000	computing for
0.1020000000	magnitude and
0.1020000000	magnitude as
0.1020000000	magnitude of
0.1020000000	decoding of
0.1020000000	decoding with
0.1020000000	solves for
0.1020000000	arise as
0.1020000000	applicable in
0.1020000000	extend and
0.1020000000	decisions using
0.1020000000	decisions with
0.1020000000	decisions to
0.1020000000	decisions for
0.1020000000	evolution with
0.1020000000	decisions and
0.1020000000	viewed from
0.1020000000	themes in
0.1020000000	predictions with
0.1020000000	predictions than
0.1020000000	predictions as
0.1020000000	predictions to
0.1020000000	predictions by
0.1020000000	classification while
0.1020000000	predictions at
0.1020000000	community with
0.1020000000	community for
0.1020000000	community but
0.1020000000	community in
0.1020000000	community to
0.1020000000	lot of
0.1020000000	gathered by
0.1020000000	transform with
0.1020000000	subtask of
0.1020000000	articles in
0.1020000000	articles and
0.1020000000	implemented to
0.1020000000	relation among
0.1020000000	relation of
0.1020000000	orders in
0.1020000000	considerably more
0.1020000000	classifier or
0.1020000000	classifier using
0.1020000000	classifier in
0.1020000000	classifier by
0.1020000000	classifier on
0.1020000000	initial and
0.1020000000	obtained under
0.1020000000	categorization and
0.1020000000	obtained show
0.1020000000	obtained and
0.1020000000	obtained at
0.1020000000	regions or
0.1020000000	obtained without
0.1020000000	predictions using
0.1020000000	activations in
0.1020000000	activations of
0.1020000000	encoders to
0.1020000000	encoders and
0.1020000000	temporal changes
0.1020000000	unlike in
0.1020000000	relation on
0.1020000000	scene in
0.1020000000	hypotheses in
0.1020000000	hypotheses for
0.1020000000	hypotheses on
0.1020000000	previously used
0.1020000000	favorably in
0.1020000000	identified in
0.1020000000	identified for
0.1020000000	access of
0.1020000000	computing system
0.1020000000	fused with
0.1020000000	investigations on
0.1020000000	critical value
0.1020000000	critical and
0.1020000000	networks often
0.1020000000	directions and
0.1020000000	link to
0.1020000000	factorization with
0.1020000000	brain computer
0.1020000000	basic and
0.1020000000	conjunction and
0.1020000000	restriction and
0.1020000000	scenes in
0.1020000000	achieved at
0.1020000000	achieved and
0.1020000000	achieved without
0.1020000000	forward in
0.1020000000	recommendation with
0.1020000000	recommendation in
0.1020000000	recommendation for
0.1020000000	outperform several
0.1020000000	interpretation to
0.1020000000	allocation with
0.1020000000	hypotheses of
0.1020000000	achieved via
0.1020000000	things in
0.1020000000	encoders for
0.1020000000	shapes using
0.1020000000	identified with
0.1020000000	summation of
0.1020000000	probabilistic and
0.1020000000	classifier of
0.1020000000	similar but
0.1020000000	similar in
0.1020000000	brain and
0.1020000000	error over
0.1020000000	designing and
0.1020000000	shapes in
0.1020000000	life of
0.1020000000	investigate different
0.1020000000	investigate using
0.1020000000	investigate two
0.1020000000	investigate if
0.1020000000	monolingual and
0.1020000000	gap and
0.1020000000	restriction to
0.1020000000	implementations on
0.1020000000	runs for
0.1020000000	patches of
0.1020000000	scenes of
0.1020000000	random and
0.1020000000	decisions of
0.1020000000	return and
0.1020000000	short for
0.1020000000	labeled as
0.1020000000	implemented within
0.1020000000	birth of
0.1020000000	birth and
0.1020000000	activations from
0.1020000000	activations and
0.1020000000	access and
0.1020000000	return of
0.1020000000	ranked by
0.1020000000	gap of
0.1020000000	intrinsic to
0.1020000000	outline of
0.1020000000	transcription of
0.1020000000	brain in
0.1020000000	extractor to
0.1020000000	decisions about
0.1020000000	random or
0.1020000000	patches with
0.1020000000	diverse as
0.1020000000	prone and
0.1020000000	diverse and
0.1020000000	papers and
0.1020000000	connections in
0.1020000000	decoding for
0.1020000000	interpretation in
0.1020000000	interpretation as
0.1020000000	return to
0.1020000000	rules to
0.1020000000	boost in
0.1020000000	motivation to
0.1020000000	motivation of
0.1020000000	motivation and
0.1020000000	attend and
0.1020000000	shapes with
0.1020000000	decay of
0.1020000000	rules on
0.1020000000	abstraction to
0.1020000000	patch to
0.1020000000	networks use
0.1020000000	read and
0.1020000000	designing such
0.1020000000	interpretation for
0.1020000000	combine different
0.1020000000	perform non
0.1020000000	perform two
0.1020000000	investigate and
0.1020000000	scenes by
0.1020000000	perform various
0.1020000000	progress of
0.1020000000	investigate various
0.1020000000	topologies and
0.1020000000	challenges as
0.1020000000	predictive of
0.1020000000	judgments of
0.1020000000	activity of
0.1020000000	predictive value
0.1020000000	implementations and
0.1020000000	rules or
0.1020000000	initial value
0.1020000000	solved through
0.1020000000	challenges with
0.1020000000	end of
0.1020000000	connections from
0.1020000000	create new
0.1020000000	security in
0.1020000000	gains for
0.1020000000	survey and
0.1020000000	closed and
0.1020000000	things and
0.1020000000	manifolds of
0.1020000000	similar and
0.1020000000	classifier system
0.1020000000	informative than
0.1020000000	goals in
0.1020000000	observational and
0.1020000000	create more
0.1020000000	commercial and
0.1020000000	suggest to
0.1020000000	interpreting and
0.1020000000	challenges to
0.1020000000	assess and
0.1020000000	security of
0.1020000000	end in
0.1020000000	progress and
0.1020000000	classifier s
0.1020000000	intelligence with
0.1020000000	appearance as
0.1020000000	correspondence and
0.1020000000	applicable and
0.1020000000	manifolds with
0.1020000000	positioning of
0.1020000000	entropy for
0.1020000000	teaching and
0.1020000000	entity in
0.1020000000	photos from
0.1020000000	connections and
0.1020000000	community and
0.1020000000	error by
0.1020000000	pairs to
0.1020000000	life and
0.1020000000	entropy as
0.1020000000	scenes using
0.1020000000	networks into
0.1020000000	shapes for
0.1020000000	visually and
0.1020000000	object s
0.1020000000	phenomena and
0.1020000000	manually and
0.1020000000	combine two
0.1020000000	moments for
0.1020000000	classification into
0.1020000000	gains of
0.1020000000	networks under
0.1020000000	synthesized from
0.1020000000	transform to
0.1020000000	moments and
0.1020000000	networks but
0.1020000000	abstraction in
0.1020000000	community of
0.1020000000	overlap and
0.1020000000	manually or
0.1020000000	implementations for
0.1020000000	short and
0.1020000000	achieved better
0.1020000000	rules under
0.1020000000	perform at
0.1020000000	perform best
0.1020000000	text s
0.1020000000	networks while
0.1020000000	end with
0.1020000000	error while
0.1020000000	games of
0.1020000000	gan for
0.1020000000	table of
0.1020000000	analyses on
0.1020000000	reconstructions of
0.1020000000	classification over
0.1020000000	loop of
0.1020000000	judgments and
0.1020000000	networks without
0.1020000000	phenomena in
0.1020000000	identify two
0.1020000000	short of
0.1020000000	classification such
0.1020000000	minimal and
0.1020000000	text or
0.1020000000	brain to
0.1020000000	svms and
0.1020000000	implemented via
0.1020000000	entropy to
0.1020000000	directions in
0.1020000000	suggest possible
0.1020000000	pairs or
0.1020000000	classification between
0.1020000000	text using
0.1020000000	text by
0.1020000000	text for
0.1020000000	classification under
0.1020000000	text into
0.1020000000	classification via
0.1020000000	classification from
0.1020000000	analyses and
0.1020000000	table and
0.1020000000	fused to
0.1020000000	classification by
0.1020000000	video into
0.1020000000	classification through
0.1020000000	common way
0.1020000000	video or
0.1020000000	networks than
0.1020000000	classification as
0.1020000000	average of
0.1020000000	reconstructed by
0.1020000000	classification time
0.1020000000	connections for
0.1020000000	common and
0.1020000000	networks show
0.1020000000	overlap in
0.1020000000	predictive and
0.1020000000	perform as
0.1020000000	networks used
0.1020000000	advances on
0.1020000000	error as
0.1020000000	video from
0.1020000000	simulated by
0.1020000000	computing such
0.1020000000	activity to
0.1020000000	identified using
0.1020000000	investigate several
0.1020000000	activity as
0.1020000000	shapes from
0.1020000000	video with
0.1020000000	directions to
0.1020000000	classification show
0.1020000000	simulated in
0.1020000000	gains and
0.1020000000	object using
0.1020000000	materials in
0.1020000000	factorization and
0.1020000000	grows as
0.1020000000	average for
0.1020000000	investigate in
0.1020000000	phenomena of
0.1020000000	original and
0.1020000000	protocols and
0.1020000000	average over
0.1020000000	moments in
0.1020000000	concrete and
0.1020000000	video in
0.1020000000	factorization to
0.1020000000	situations with
0.1020000000	solved as
0.1020000000	error or
0.1020000000	joints in
0.1020000000	disease in
0.1020000000	motions in
0.1020000000	photos of
0.1020000000	classification but
0.1020000000	intelligence for
0.1020000000	disparity and
0.1020000000	preservation and
0.1020000000	methodologies and
0.1020000000	motivations for
0.1020000000	advances and
0.1020000000	papers in
0.1020000000	captions for
0.1020000000	label for
0.1020000000	viewed in
0.1020000000	identify three
0.1020000000	gains on
0.1020000000	identify and
0.1020000000	attribute and
0.1020000000	gains with
0.1020000000	assignments and
0.1020000000	challenges by
0.1020000000	classifier to
0.1020000000	exploring new
0.1020000000	progression of
0.1020000000	error between
0.1020000000	networks namely
0.1020000000	loop and
0.1020000000	recommendation and
0.1020000000	networks like
0.1020000000	common for
0.1020000000	analyses to
0.1020000000	normals and
0.1020000000	networks by
0.1020000000	analyses for
0.1020000000	networks together
0.1020000000	identify several
0.1020000000	networks or
0.1020000000	networks through
0.1020000000	networks do
0.1020000000	text of
0.1020000000	text but
0.1020000000	average and
0.1020000000	scene with
0.1020000000	subset and
0.1020000000	pairs for
0.1020000000	round of
0.1020000000	connections of
0.1020000000	derivation and
0.1020000000	alexnet and
0.1020000000	perform several
0.1020000000	cluster with
0.1020000000	matches to
0.1020000000	pairs in
0.1020000000	community as
0.1020000000	pairs from
0.1020000000	centered on
0.1020000000	implemented system
0.1020000000	obtained over
0.1020000000	forward to
0.1020000000	interactive and
0.1020000000	create and
0.1020000000	error with
0.1020000000	combine with
0.1020000000	error than
0.1020000000	error to
0.1020000000	error using
0.1020000000	error but
0.1020000000	error under
0.1020000000	principled and
0.1020000000	associations in
0.1020000000	common use
0.1020000000	identified from
0.1020000000	induced from
0.1020000000	video as
0.1020000000	solved for
0.1020000000	bayesian and
0.1020000000	label to
0.1020000000	mappings of
0.1020000000	al and
0.1020000000	abstraction and
0.1020000000	decisions on
0.1020000000	perform on
0.1020000000	formulas in
0.1020000000	suggest using
0.1020000000	sequentially and
0.1020000000	advances of
0.1020000000	end using
0.1020000000	end without
0.1020000000	gaussian or
0.1020000000	correspondence of
0.1020000000	object with
0.1020000000	video of
0.1020000000	video at
0.1020000000	decisions by
0.1020000000	classification without
0.1020000000	gender or
0.1020000000	implementing such
0.1020000000	situations and
0.1020000000	situations of
0.1020000000	goals for
0.1020000000	combine to
0.1020000000	formulas and
0.1020000000	achieved good
0.1020000000	nature as
0.1020000000	mappings for
0.1020000000	matches between
0.1020000000	disease and
0.1020000000	original ones
0.1020000000	abstraction of
0.1020000000	cpus and
0.1020000000	favorably with
0.1020000000	decay and
0.1020000000	reconstructions with
0.1020000000	allowed in
0.1020000000	grows with
0.1020000000	scene using
0.1020000000	scene into
0.1020000000	synthesized by
0.1020000000	synthesized and
0.1020000000	evolve in
0.1020000000	generations of
0.1020000000	weather and
0.1020000000	interpret and
0.1020000000	coupled to
0.1020000000	manually by
0.1020000000	correspondence with
0.1020000000	gender of
0.1020000000	templates to
0.1020000000	grading of
0.1020000000	runs of
0.1020000000	extractor and
0.1020000000	allocation and
0.1020000000	allocation in
0.1020000000	allocation for
0.1020000000	allocation of
0.1020000000	localized and
0.1020000000	aimed to
0.1020000000	industry and
0.1020000000	orderings of
0.1020000000	sign of
0.1020000000	schedule for
0.1020000000	education and
0.1020000000	assignments to
0.1020000000	assignments of
0.1020000000	assignments for
0.1020000000	schedules for
0.1020000000	attribute of
0.1020000000	controls and
0.1020000000	syntax of
0.1020000000	word2vec and
0.1020000000	grams and
0.1020000000	ideal for
0.1020000000	overlap of
0.1020000000	overlap with
0.1020000000	overlap between
0.1020000000	record of
0.1020000000	sort of
0.1020000000	sorting and
0.1020000000	analyses in
0.1020000000	essentially in
0.1020000000	informative for
0.1020000000	informative and
0.1020000000	split of
0.1020000000	couple of
0.1020000000	matches and
0.1020000000	protocols for
0.1020000000	restrictions to
0.1020000000	restrictions and
0.1020000000	restrictions of
0.1020000000	attribution and
0.1020000000	translates to
0.1020000000	body and
0.1020000000	mechanics and
0.1020000000	mechanics of
0.1020000000	worth of
0.1020000000	methodologies in
0.1020000000	methodologies to
0.1020000000	fitted to
0.1020000000	surfaces and
0.1020000000	favorably to
0.1020000000	appearance to
0.1020000000	appearance in
0.1020000000	transform of
0.1020000000	transform as
0.1020000000	transform for
0.1020000000	ingredient in
0.1020000000	symmetry in
0.1020000000	symmetry and
0.1020000000	solved to
0.1020000000	albeit with
0.1020000000	prepared for
0.1020000000	programs as
0.1020000000	programs using
0.1020000000	programs by
0.1020000000	programs of
0.1020000000	driving and
0.1020000000	particles in
0.1020000000	transport and
0.1020000000	adjustment of
0.1020000000	motions and
0.1020000000	motions of
0.1020000000	beginning to
0.1020000000	manifolds to
0.1020000000	manifolds and
0.1020000000	manifolds in
0.1020000000	incrementally and
0.1020000000	surfaces from
0.1020000000	surfaces in
0.1020000000	tractability of
0.1020000000	tractability and
0.1020000000	companies and
0.1020000000	minimizers of
0.1020000000	maintained by
0.1020000000	customers and
0.1020000000	opportunities to
0.1020000000	opportunities and
0.1020000000	illustrated using
0.1020000000	illustrated and
0.1020000000	volumes and
0.1020000000	implementing and
0.1020000000	summarized in
0.1020000000	distortions in
0.1020000000	distortions and
0.1020000000	backbone of
0.1020000000	spent in
0.1020000000	inequality and
0.1020000000	complexities in
0.1020000000	complexities and
0.1020000000	mri using
0.1020000000	solutions but
0.1020000000	analytical and
0.1020000000	filters on
0.1020000000	carlo and
0.1020000000	approximated using
0.1020000000	suitability of
0.1020000000	suitability for
0.1020000000	decomposition on
0.1020000000	decomposition with
0.1020000000	decomposition in
0.1020000000	decomposition for
0.1020000000	denoising with
0.1020000000	rbm and
0.1020000000	rank in
0.1020000000	rank for
0.1020000000	pruning of
0.1020000000	pruning and
0.1020000000	division of
0.1020000000	summary and
0.1020000000	paths for
0.1020000000	paths from
0.1020000000	asked to
0.1020000000	constructing such
0.1020000000	intensive and
0.1020000000	termination of
0.1020000000	preserving and
0.1020000000	separation using
0.1020000000	organized by
0.1020000000	exclusively on
0.1020000000	faces of
0.1020000000	leveraging on
0.1020000000	initialized by
0.1020000000	failure in
0.1020000000	clauses and
0.1020000000	translated to
0.1020000000	forums and
0.1020000000	explicitly consider
0.1020000000	potential value
0.1020000000	paths between
0.1020000000	collection and
0.1020000000	agree on
0.1020000000	translate to
0.1020000000	align and
0.1020000000	competitively on
0.1020000000	monitoring with
0.1020000000	numbers to
0.1020000000	collection for
0.1020000000	corpora in
0.1020000000	explicitly in
0.1020000000	period and
0.1020000000	feedforward and
0.1020000000	competitively with
0.1020000000	triplets of
0.1020000000	requirement to
0.1020000000	requirement and
0.1020000000	modeled in
0.1020000000	evaluations in
0.1020000000	evaluations for
0.1020000000	practices and
0.1020000000	establish new
0.1020000000	produces more
0.1020000000	traces in
0.1020000000	library and
0.1020000000	days of
0.1020000000	conditions as
0.1020000000	conditions by
0.1020000000	distributed over
0.1020000000	distributed among
0.1020000000	maintenance and
0.1020000000	per weight
0.1020000000	reduced in
0.1020000000	gru and
0.1020000000	production of
0.1020000000	evaluations to
0.1020000000	effectively use
0.1020000000	effectively used
0.1020000000	effectively by
0.1020000000	effectively in
0.1020000000	theorems for
0.1020000000	expressions using
0.1020000000	expressions of
0.1020000000	expressions by
0.1020000000	pruning for
0.1020000000	analysis also
0.1020000000	flat and
0.1020000000	faces for
0.1020000000	logical system
0.1020000000	logical and
0.1020000000	scan of
0.1020000000	corpora using
0.1020000000	output from
0.1020000000	scenarios but
0.1020000000	effectively from
0.1020000000	numbers and
0.1020000000	expressions in
0.1020000000	suitable as
0.1020000000	accuracies in
0.1020000000	accuracies and
0.1020000000	demonstrations of
0.1020000000	costs in
0.1020000000	services for
0.1020000000	services in
0.1020000000	property with
0.1020000000	property in
0.1020000000	property for
0.1020000000	chains of
0.1020000000	calculated with
0.1020000000	calculated and
0.1020000000	calculated in
0.1020000000	generalization for
0.1020000000	solutions from
0.1020000000	frameworks to
0.1020000000	monitor and
0.1020000000	dependence and
0.1020000000	problem given
0.1020000000	dependence between
0.1020000000	tractable in
0.1020000000	mathematically and
0.1020000000	analysis but
0.1020000000	imaging through
0.1020000000	aid to
0.1020000000	requirement in
0.1020000000	variables given
0.1020000000	times on
0.1020000000	times with
0.1020000000	times in
0.1020000000	times to
0.1020000000	proofs for
0.1020000000	times more
0.1020000000	texture in
0.1020000000	slow for
0.1020000000	perceptrons and
0.1020000000	deal of
0.1020000000	obtain and
0.1020000000	flow from
0.1020000000	flow with
0.1020000000	flow to
0.1020000000	flow of
0.1020000000	skills in
0.1020000000	interesting for
0.1020000000	interesting new
0.1020000000	interesting in
0.1020000000	creativity and
0.1020000000	flow for
0.1020000000	care and
0.1020000000	conditions of
0.1020000000	organized as
0.1020000000	compactness and
0.1020000000	flow in
0.1020000000	extent and
0.1020000000	translating from
0.1020000000	distributed system
0.1020000000	distributed and
0.1020000000	explicitly given
0.1020000000	conditions to
0.1020000000	recorded with
0.1020000000	weight and
0.1020000000	weight to
0.1020000000	activities to
0.1020000000	activities in
0.1020000000	practices for
0.1020000000	activities of
0.1020000000	activities for
0.1020000000	accurately in
0.1020000000	dictionaries and
0.1020000000	sequences by
0.1020000000	organization and
0.1020000000	utterances in
0.1020000000	problem show
0.1020000000	conditions in
0.1020000000	tests using
0.1020000000	tests of
0.1020000000	tests with
0.1020000000	fail for
0.1020000000	works at
0.1020000000	works use
0.1020000000	loops in
0.1020000000	works as
0.1020000000	accurately and
0.1020000000	works under
0.1020000000	derivations of
0.1020000000	gate to
0.1020000000	variables into
0.1020000000	similarities to
0.1020000000	maps by
0.1020000000	maps in
0.1020000000	easy way
0.1020000000	diseases and
0.1020000000	significance and
0.1020000000	significance for
0.1020000000	note on
0.1020000000	analyzing and
0.1020000000	explicitly and
0.1020000000	sentences using
0.1020000000	slow and
0.1020000000	slow in
0.1020000000	slow to
0.1020000000	encountered by
0.1020000000	tractable and
0.1020000000	tuples of
0.1020000000	imaging using
0.1020000000	medical and
0.1020000000	expressions from
0.1020000000	easy for
0.1020000000	accuracies on
0.1020000000	extent to
0.1020000000	significance in
0.1020000000	r and
0.1020000000	segmenting and
0.1020000000	function between
0.1020000000	reached by
0.1020000000	scenarios with
0.1020000000	scenarios in
0.1020000000	similarities in
0.1020000000	similarities with
0.1020000000	easier and
0.1020000000	fundamental and
0.1020000000	paths of
0.1020000000	links to
0.1020000000	links and
0.1020000000	concatenated to
0.1020000000	degrees and
0.1020000000	arguments of
0.1020000000	lengths of
0.1020000000	variables without
0.1020000000	calculated for
0.1020000000	property to
0.1020000000	sequences as
0.1020000000	issue to
0.1020000000	failure and
0.1020000000	area to
0.1020000000	area from
0.1020000000	discover and
0.1020000000	area with
0.1020000000	area for
0.1020000000	area in
0.1020000000	area and
0.1020000000	easy in
0.1020000000	explicitly or
0.1020000000	texts using
0.1020000000	metric such
0.1020000000	clauses in
0.1020000000	metric with
0.1020000000	metric of
0.1020000000	metric between
0.1020000000	metric on
0.1020000000	videos for
0.1020000000	potential use
0.1020000000	meaningful way
0.1020000000	corpora show
0.1020000000	crf for
0.1020000000	corpora with
0.1020000000	problem over
0.1020000000	designs for
0.1020000000	increasing use
0.1020000000	effectively for
0.1020000000	accuracies for
0.1020000000	expressions to
0.1020000000	quantization of
0.1020000000	fundamental for
0.1020000000	developments on
0.1020000000	fundamental in
0.1020000000	easier for
0.1020000000	numbers in
0.1020000000	numbers for
0.1020000000	placement of
0.1020000000	limited time
0.1020000000	limited and
0.1020000000	limited or
0.1020000000	definitions and
0.1020000000	reproducibility and
0.1020000000	precisely and
0.1020000000	obtain new
0.1020000000	proofs in
0.1020000000	calculated using
0.1020000000	weight for
0.1020000000	symmetries in
0.1020000000	classical computer
0.1020000000	classical and
0.1020000000	gp to
0.1020000000	links in
0.1020000000	solutions using
0.1020000000	ingredients of
0.1020000000	proposal of
0.1020000000	issue with
0.1020000000	issue and
0.1020000000	accuracies than
0.1020000000	settings to
0.1020000000	settings with
0.1020000000	settings for
0.1020000000	settings of
0.1020000000	settings in
0.1020000000	settings as
0.1020000000	convnets on
0.1020000000	linked with
0.1020000000	times as
0.1020000000	calculated as
0.1020000000	struggle to
0.1020000000	potential in
0.1020000000	segments to
0.1020000000	variables on
0.1020000000	multiple people
0.1020000000	tests show
0.1020000000	financial and
0.1020000000	problem one
0.1020000000	videos as
0.1020000000	analysis towards
0.1020000000	segmentation through
0.1020000000	selected and
0.1020000000	analysis indicates
0.1020000000	equations to
0.1020000000	cumbersome and
0.1020000000	inefficient in
0.1020000000	loss between
0.1020000000	weight in
0.1020000000	similarities of
0.1020000000	detection as
0.1020000000	conflicts and
0.1020000000	convolution to
0.1020000000	solutions on
0.1020000000	analysis by
0.1020000000	segmentation into
0.1020000000	discussed to
0.1020000000	skills and
0.1020000000	distributed in
0.1020000000	discussed by
0.1020000000	analysis about
0.1020000000	function s
0.1020000000	flow on
0.1020000000	videos into
0.1020000000	problem s
0.1020000000	timely and
0.1020000000	discussion and
0.1020000000	variables but
0.1020000000	dependence in
0.1020000000	unmixing of
0.1020000000	ontologies in
0.1020000000	visualize and
0.1020000000	saliency of
0.1020000000	output in
0.1020000000	utterances and
0.1020000000	controller to
0.1020000000	considerations and
0.1020000000	output as
0.1020000000	relaxed to
0.1020000000	problem both
0.1020000000	processor for
0.1020000000	problem more
0.1020000000	inefficient for
0.1020000000	interesting to
0.1020000000	selected as
0.1020000000	function through
0.1020000000	design novel
0.1020000000	persons and
0.1020000000	variance than
0.1020000000	output and
0.1020000000	output to
0.1020000000	problem at
0.1020000000	italian and
0.1020000000	loss from
0.1020000000	forecasting and
0.1020000000	works of
0.1020000000	googlenet and
0.1020000000	selecting and
0.1020000000	easy and
0.1020000000	variance for
0.1020000000	equations of
0.1020000000	probability to
0.1020000000	learns and
0.1020000000	maps at
0.1020000000	equations and
0.1020000000	texts as
0.1020000000	library to
0.1020000000	potential as
0.1020000000	equations in
0.1020000000	variables by
0.1020000000	length as
0.1020000000	tests in
0.1020000000	probability at
0.1020000000	texts to
0.1020000000	run at
0.1020000000	detailed and
0.1020000000	times less
0.1020000000	problem while
0.1020000000	convolution for
0.1020000000	corpora and
0.1020000000	sentences into
0.1020000000	design as
0.1020000000	material and
0.1020000000	constructing and
0.1020000000	variables while
0.1020000000	weight of
0.1020000000	sequences using
0.1020000000	problem without
0.1020000000	obtain very
0.1020000000	discover new
0.1020000000	dictionaries as
0.1020000000	evaluations and
0.1020000000	economics and
0.1020000000	critically on
0.1020000000	document and
0.1020000000	frameworks in
0.1020000000	function but
0.1020000000	generalization on
0.1020000000	document or
0.1020000000	problem also
0.1020000000	texts or
0.1020000000	function using
0.1020000000	boosted by
0.1020000000	detection or
0.1020000000	denoising using
0.1020000000	movies and
0.1020000000	update to
0.1020000000	mlp and
0.1020000000	texts of
0.1020000000	frameworks of
0.1020000000	works and
0.1020000000	services and
0.1020000000	awareness and
0.1020000000	kernels on
0.1020000000	metric as
0.1020000000	detection while
0.1020000000	nouns and
0.1020000000	selected for
0.1020000000	cpu and
0.1020000000	enriched with
0.1020000000	reduced from
0.1020000000	detection via
0.1020000000	sentences as
0.1020000000	dictionaries with
0.1020000000	effectively to
0.1020000000	multiple sub
0.1020000000	segments from
0.1020000000	arguments for
0.1020000000	function under
0.1020000000	mixing time
0.1020000000	analysis via
0.1020000000	maps with
0.1020000000	design using
0.1020000000	learnt using
0.1020000000	analysis show
0.1020000000	maps on
0.1020000000	problem however
0.1020000000	maps to
0.1020000000	texts with
0.1020000000	corpora to
0.1020000000	detection through
0.1020000000	loss or
0.1020000000	variance and
0.1020000000	loss with
0.1020000000	frameworks and
0.1020000000	forecasting using
0.1020000000	detect such
0.1020000000	hierarchy for
0.1020000000	designs and
0.1020000000	rejection of
0.1020000000	drop of
0.1020000000	textures in
0.1020000000	equations for
0.1020000000	analysis provides
0.1020000000	aid of
0.1020000000	happen to
0.1020000000	modeled and
0.1020000000	conditions with
0.1020000000	accurately than
0.1020000000	analysis as
0.1020000000	function while
0.1020000000	practices in
0.1020000000	function or
0.1020000000	imaging in
0.1020000000	problem via
0.1020000000	weighting and
0.1020000000	denoising of
0.1020000000	probability in
0.1020000000	design to
0.1020000000	maps for
0.1020000000	planner for
0.1020000000	multiple different
0.1020000000	concludes with
0.1020000000	output with
0.1020000000	theorems and
0.1020000000	probability for
0.1020000000	analysis uses
0.1020000000	dictionaries in
0.1020000000	sequences for
0.1020000000	sequences from
0.1020000000	reduced and
0.1020000000	discussed as
0.1020000000	function value
0.1020000000	lower and
0.1020000000	sentences or
0.1020000000	problem under
0.1020000000	solutions than
0.1020000000	probability one
0.1020000000	utterances to
0.1020000000	analysis through
0.1020000000	analysis such
0.1020000000	issue for
0.1020000000	variables as
0.1020000000	selected in
0.1020000000	cpu time
0.1020000000	segmentation or
0.1020000000	works using
0.1020000000	dictionaries for
0.1020000000	simulator for
0.1020000000	activities on
0.1020000000	variables or
0.1020000000	texture of
0.1020000000	solutions found
0.1020000000	evaluations show
0.1020000000	obtain more
0.1020000000	buildings and
0.1020000000	adapt and
0.1020000000	convnets for
0.1020000000	failure of
0.1020000000	scenarios for
0.1020000000	maps using
0.1020000000	expansion and
0.1020000000	effectively with
0.1020000000	works to
0.1020000000	update in
0.1020000000	design with
0.1020000000	analysis system
0.1020000000	faces with
0.1020000000	coupling of
0.1020000000	solutions by
0.1020000000	document s
0.1020000000	tests and
0.1020000000	meaningful and
0.1020000000	solutions as
0.1020000000	problem between
0.1020000000	output for
0.1020000000	length for
0.1020000000	problem namely
0.1020000000	interesting and
0.1020000000	reading and
0.1020000000	design two
0.1020000000	design in
0.1020000000	problem either
0.1020000000	problem because
0.1020000000	property allows
0.1020000000	occur with
0.1020000000	indication of
0.1020000000	accepted by
0.1020000000	detection at
0.1020000000	designs of
0.1020000000	selected using
0.1020000000	discussion on
0.1020000000	flow between
0.1020000000	scenarios of
0.1020000000	problem then
0.1020000000	outcome of
0.1020000000	issue by
0.1020000000	forgetting and
0.1020000000	conditions or
0.1020000000	selected to
0.1020000000	effectively than
0.1020000000	works best
0.1020000000	maximum and
0.1020000000	multiple non
0.1020000000	output by
0.1020000000	problem usually
0.1020000000	design new
0.1020000000	corpora from
0.1020000000	variance with
0.1020000000	cifar and
0.1020000000	safe and
0.1020000000	function via
0.1020000000	interval and
0.1020000000	problem since
0.1020000000	problem within
0.1020000000	function into
0.1020000000	function at
0.1020000000	function from
0.1020000000	function such
0.1020000000	crf with
0.1020000000	decomposition into
0.1020000000	segmentation via
0.1020000000	corpora for
0.1020000000	problem but
0.1020000000	problem such
0.1020000000	problem especially
0.1020000000	problem or
0.1020000000	problem so
0.1020000000	problem becomes
0.1020000000	problem through
0.1020000000	times better
0.1020000000	unreliable and
0.1020000000	times for
0.1020000000	evaluations using
0.1020000000	segments in
0.1020000000	videos from
0.1020000000	videos in
0.1020000000	videos without
0.1020000000	occur at
0.1020000000	obtain good
0.1020000000	stands in
0.1020000000	evaluations with
0.1020000000	chains and
0.1020000000	academic and
0.1020000000	superposition of
0.1020000000	segments and
0.1020000000	segments as
0.1020000000	run of
0.1020000000	maximum mean
0.1020000000	maximum of
0.1020000000	analysis or
0.1020000000	reports to
0.1020000000	hierarchy with
0.1020000000	detection etc
0.1020000000	duration and
0.1020000000	randomly and
0.1020000000	encoder with
0.1020000000	analytics and
0.1020000000	encoder for
0.1020000000	generalization across
0.1020000000	pretraining and
0.1020000000	multiple and
0.1020000000	experiences and
0.1020000000	experiences in
0.1020000000	purposes and
0.1020000000	purposes of
0.1020000000	accepted as
0.1020000000	hierarchy in
0.1020000000	completely different
0.1020000000	characterizing and
0.1020000000	middle of
0.1020000000	middle and
0.1020000000	differently from
0.1020000000	arguments from
0.1020000000	arguments in
0.1020000000	arguments to
0.1020000000	partially known
0.1020000000	generalization to
0.1020000000	essence of
0.1020000000	extensively on
0.1020000000	extensively in
0.1020000000	acceptance in
0.1020000000	acceptance of
0.1020000000	textures with
0.1020000000	costs of
0.1020000000	handling in
0.1020000000	handling and
0.1020000000	filters with
0.1020000000	filters of
0.1020000000	filters to
0.1020000000	filters or
0.1020000000	filters at
0.1020000000	filters as
0.1020000000	tight as
0.1020000000	tight in
0.1020000000	tight and
0.1020000000	expansion with
0.1020000000	expansion in
0.1020000000	expansion for
0.1020000000	correspondences in
0.1020000000	variations for
0.1020000000	variations to
0.1020000000	variations with
0.1020000000	variations on
0.1020000000	digits and
0.1020000000	proposal for
0.1020000000	proposal to
0.1020000000	windows of
0.1020000000	bandits and
0.1020000000	compactness of
0.1020000000	diagnosis using
0.1020000000	diagnosis in
0.1020000000	engage in
0.1020000000	injection of
0.1020000000	cycle of
0.1020000000	traces of
0.1020000000	library of
0.1020000000	seconds on
0.1020000000	acting in
0.1020000000	correspondences of
0.1020000000	distinguished by
0.1020000000	formulate two
0.1020000000	avoided by
0.1020000000	lengths and
0.1020000000	cars in
0.1020000000	cars and
0.1020000000	starts by
0.1020000000	linked by
0.1020000000	wikipedia and
0.1020000000	mixing of
0.1020000000	mixing and
0.1020000000	cooperation and
0.1020000000	reactions to
0.1020000000	sports and
0.1020000000	executed on
0.1020000000	executed in
0.1020000000	executed by
0.1020000000	recorded by
0.1020000000	organization in
0.1020000000	vehicle s
0.1020000000	vehicle in
0.1020000000	cheap and
0.1020000000	separation in
0.1020000000	atoms of
0.1020000000	atoms and
0.1020000000	atoms from
0.1020000000	production system
0.1020000000	production and
0.1020000000	production in
0.1020000000	ubiquitous and
0.1020000000	potentials and
0.1020000000	potentials in
0.1020000000	potentials of
0.1020000000	potentials for
0.1020000000	tradeoffs in
0.1020000000	inefficient and
0.1020000000	converges in
0.1020000000	converges at
0.1020000000	convnets and
0.1020000000	trivial and
0.1020000000	landscape for
0.1020000000	landscape and
0.1020000000	centers and
0.1020000000	kernels as
0.1020000000	package for
0.1020000000	dictionaries of
0.1020000000	rapid and
0.1020000000	ontologies with
0.1020000000	positions and
0.1020000000	styles of
0.1020000000	contents of
0.1020000000	contents and
0.1020000000	contents in
0.1020000000	constituents and
0.1020000000	severity of
0.1020000000	satisfied with
0.1020000000	satisfied in
0.1020000000	chains in
0.1020000000	aid for
0.1020000000	copy of
0.1020000000	ontologies and
0.1020000000	ontologies for
0.1020000000	predictability of
0.1020000000	analytics for
0.1020000000	maintenance of
0.1020000000	accessibility of
0.1020000000	impacts of
0.1020000000	hands in
0.1020000000	hands and
0.1020000000	testbed for
0.1020000000	reproducibility of
0.1020000000	positions in
0.1020000000	innovation of
0.1020000000	stacks of
0.1020000000	generalisation of
0.1020000000	reports on
0.1020000000	crfs and
0.1020000000	windows and
0.1020000000	crf to
0.1020000000	developments of
0.1020000000	developments and
0.1020000000	exhaustive and
0.1020000000	weighting of
0.1020000000	count and
0.1020000000	laborious and
0.1020000000	expertise in
0.1020000000	expertise and
0.1020000000	speedups of
0.1020000000	speedups in
0.1020000000	appeal of
0.1020000000	conceptual and
0.1020000000	velocity and
0.1020000000	white and
0.1020000000	material to
0.1020000000	covered in
0.1020000000	discussion in
0.1020000000	computers to
0.1020000000	computers and
0.1020000000	inversion of
0.1020000000	preference and
0.1020000000	preference of
0.1020000000	preference for
0.1020000000	mentions of
0.1020000000	fuzzy and
0.1020000000	outcome in
0.1020000000	advertising and
0.1020000000	kappa and
0.1020000000	adaptability of
0.1020000000	outcome and
0.1020000000	placement and
0.1020000000	heart of
0.1020000000	heart and
0.1020000000	interval of
0.1020000000	symmetries and
0.1020000000	symmetries of
0.1020000000	makers in
0.1020000000	battery of
0.1020000000	mentions in
0.1020000000	mentions and
0.1020000000	sublinear in
0.1020000000	analogue to
0.1020000000	resilience to
0.1020000000	resilience of
0.1020000000	persons in
0.1020000000	parents and
0.1020000000	bandits for
0.1020000000	loops and
0.1020000000	happen in
0.1020000000	perceptions of
0.1020000000	competitors in
0.1020000000	deviation of
0.1020000000	deviation and
0.1020000000	markers and
0.1010000000	the art algorithms in
0.1010000000	the goal to
0.1010000000	and stability of
0.1010000000	non stationary and
0.1010000000	mainly focused on
0.1010000000	to allow for
0.1010000000	of two different
0.1010000000	an object and
0.1010000000	every pixel
0.1010000000	help researchers
0.1010000000	some restrictions
0.1010000000	the surgeon
0.1010000000	the ventral
0.1010000000	i y
0.1010000000	back translation
0.1010000000	full posterior
0.1010000000	and various
0.1010000000	four public
0.1000000000	the problem of learning from
0.1000000000	the proposed method by
0.1000000000	the learning process of
0.1000000000	the proposed model on
0.1000000000	of accuracy for
0.1000000000	and subject to
0.1000000000	the data available
0.1000000000	and objects in
0.1000000000	the tracking of
0.1000000000	a new two
0.1000000000	the convergence and
0.1000000000	for part of
0.1000000000	the concepts and
0.1000000000	for segmentation of
0.1000000000	this notion of
0.1000000000	the accuracy and
0.1000000000	the way in
0.1000000000	for images of
0.1000000000	this part
0.1000000000	far superior
0.1000000000	and i
0.1000000000	or different
0.1000000000	in so
0.1000000000	in using
0.1000000000	year and
0.0990000000	an image in
0.0990000000	2d images and
0.0990000000	the problem under
0.0990000000	s default
0.0990000000	best configuration
0.0990000000	several hours
0.0990000000	not possess
0.0990000000	very attractive
0.0990000000	while satisfying
0.0990000000	to craft
0.0990000000	to buy
0.0990000000	to comprehend
0.0990000000	possible outcomes
0.0990000000	by distributing
0.0990000000	and over
0.0990000000	across views
0.0990000000	a dichotomy
0.0990000000	a clever
0.0990000000	a roadmap
0.0980000000	the number of clusters and
0.0980000000	for semantic segmentation of
0.0980000000	this information to
0.0980000000	of images and
0.0980000000	a loss of
0.0980000000	in networks with
0.0980000000	the learning from
0.0980000000	for segmentation and
0.0980000000	the diversity and
0.0980000000	relatively short
0.0980000000	other things
0.0980000000	less reliable
0.0980000000	best list
0.0980000000	different lengths
0.0980000000	different persons
0.0980000000	different resolutions
0.0980000000	three decades
0.0980000000	towards developing
0.0980000000	each vertex
0.0980000000	follows 1
0.0980000000	most prominent
0.0980000000	the nystrom
0.0980000000	the antecedent
0.0980000000	the prospects
0.0980000000	the wake
0.0980000000	the gist
0.0980000000	the babi
0.0980000000	the hippocampus
0.0980000000	the sixth
0.0980000000	the primate
0.0980000000	the neocortex
0.0980000000	some mild
0.0980000000	over 200
0.0980000000	e step
0.0980000000	more transparent
0.0980000000	of malaria
0.0980000000	more concise
0.0980000000	90 accuracy
0.0980000000	to pinpoint
0.0980000000	any extra
0.0980000000	often intractable
0.0980000000	to survive
0.0980000000	an unavoidable
0.0980000000	to customize
0.0980000000	to remember
0.0980000000	an abrupt
0.0980000000	an intricate
0.0980000000	to inspect
0.0980000000	to undertake
0.0980000000	to distill
0.0980000000	while controlling
0.0980000000	time span
0.0980000000	by cascading
0.0980000000	within reasonable
0.0980000000	further boost
0.0980000000	non uniformly
0.0980000000	non equilibrium
0.0980000000	and described
0.0980000000	and pragmatics
0.0980000000	a neurally
0.0980000000	a l
0.0980000000	without extra
0.0980000000	a dpp
0.0970000000	available at url
0.0970000000	l 2 norm
0.0970000000	a much better
0.0970000000	five benchmark
0.0970000000	every instance
0.0970000000	still missing
0.0970000000	this essay
0.0970000000	this deficiency
0.0970000000	then fused
0.0970000000	then fed
0.0970000000	sub sequences
0.0970000000	s opinion
0.0970000000	much effort
0.0970000000	less expensive
0.0970000000	best published
0.0970000000	among entities
0.0970000000	different styles
0.0970000000	2 000
0.0970000000	than 80
0.0970000000	different speakers
0.0970000000	yet flexible
0.0970000000	three modules
0.0970000000	different species
0.0970000000	different emotions
0.0970000000	2 million
0.0970000000	3d position
0.0970000000	two gaussians
0.0970000000	than 40
0.0970000000	than 90
0.0970000000	two branches
0.0970000000	3d body
0.0970000000	quite effective
0.0970000000	too complex
0.0970000000	second place
0.0970000000	each column
0.0970000000	becomes difficult
0.0970000000	k clusters
0.0970000000	near future
0.0970000000	the isbi
0.0970000000	the pioneering
0.0970000000	most frequent
0.0970000000	made explicit
0.0970000000	the sole
0.0970000000	not imply
0.0970000000	the consequent
0.0970000000	the eigendecomposition
0.0970000000	the 4th
0.0970000000	not satisfied
0.0970000000	the longest
0.0970000000	made great
0.0970000000	m step
0.0970000000	the researcher
0.0970000000	the jensen
0.0970000000	provides insight
0.0970000000	not meet
0.0970000000	the eventual
0.0970000000	the restored
0.0970000000	the predominant
0.0970000000	certain sense
0.0970000000	the cornerstone
0.0970000000	the berkeley
0.0970000000	the converse
0.0970000000	the robocup
0.0970000000	the kdd
0.0970000000	certain degree
0.0970000000	the reciprocal
0.0970000000	currently popular
0.0970000000	take actions
0.0970000000	about individuals
0.0970000000	over 80
0.0970000000	over 90
0.0970000000	over 40
0.0970000000	over union
0.0970000000	no guarantee
0.0970000000	more distant
0.0970000000	useful insights
0.0970000000	of vowels
0.0970000000	very closely
0.0970000000	useful resource
0.0970000000	computer interface
0.0970000000	more accessible
0.0970000000	top 10
0.0970000000	of california
0.0970000000	of 0.90
0.0970000000	more informed
0.0970000000	no external
0.0970000000	more subtle
0.0970000000	more convenient
0.0970000000	more favorable
0.0970000000	aside from
0.0970000000	to regulate
0.0970000000	an opponent
0.0970000000	self localization
0.0970000000	possible extensions
0.0970000000	to visit
0.0970000000	often involve
0.0970000000	to pull
0.0970000000	to parameterize
0.0970000000	to hide
0.0970000000	re rank
0.0970000000	give sufficient
0.0970000000	to compile
0.0970000000	to forget
0.0970000000	to stimulate
0.0970000000	to delineate
0.0970000000	to accumulate
0.0970000000	to enumerate
0.0970000000	an accompanying
0.0970000000	to decouple
0.0970000000	to substantiate
0.0970000000	often desirable
0.0970000000	to extrapolate
0.0970000000	mean variance
0.0970000000	possible combinations
0.0970000000	between adjacent
0.0970000000	by dividing
0.0970000000	between successive
0.0970000000	between neighboring
0.0970000000	time windows
0.0970000000	time warping
0.0970000000	by constraining
0.0970000000	by feeding
0.0970000000	by putting
0.0970000000	by forcing
0.0970000000	by placing
0.0970000000	t 3
0.0970000000	by relaxing
0.0970000000	last years
0.0970000000	non redundant
0.0970000000	and rescue
0.0970000000	sequential version
0.0970000000	sequential nature
0.0970000000	non player
0.0970000000	non cooperative
0.0970000000	sometimes even
0.0970000000	with overwhelming
0.0970000000	and specular
0.0970000000	and ending
0.0970000000	and found
0.0970000000	part annotations
0.0970000000	n nodes
0.0970000000	and ijb
0.0970000000	and corrects
0.0970000000	and t2
0.0970000000	and hmdb
0.0970000000	and meteor
0.0970000000	especially true
0.0970000000	four times
0.0970000000	a clearer
0.0970000000	four languages
0.0970000000	or gate
0.0970000000	a stepwise
0.0970000000	a subroutine
0.0970000000	a firm
0.0970000000	a predetermined
0.0970000000	a pressing
0.0970000000	without assuming
0.0970000000	d videos
0.0960000000	a convolutional neural network cnn to
0.0960000000	in e commerce
0.0960000000	for e commerce
0.0960000000	for example in
0.0960000000	does not exceed
0.0960000000	does not degrade
0.0960000000	the current best
0.0960000000	five point
0.0960000000	still achieving
0.0960000000	this contrasts
0.0960000000	different phases
0.0960000000	yet discriminative
0.0960000000	yet powerful
0.0960000000	as finance
0.0960000000	two adjacent
0.0960000000	different meanings
0.0960000000	than sgd
0.0960000000	different roles
0.0960000000	several authors
0.0960000000	3d location
0.0960000000	than half
0.0960000000	two paradigms
0.0960000000	two layered
0.0960000000	for compiling
0.0960000000	3 log
0.0960000000	for and
0.0960000000	for parallelizing
0.0960000000	on timit
0.0960000000	each period
0.0960000000	each branch
0.0960000000	each landmark
0.0960000000	the tightness
0.0960000000	the epipolar
0.0960000000	the planted
0.0960000000	the discriminability
0.0960000000	the miccai
0.0960000000	the nyu
0.0960000000	the movielens
0.0960000000	the celebrated
0.0960000000	the grassmannian
0.0960000000	the mammalian
0.0960000000	the prevailing
0.0960000000	the practitioner
0.0960000000	the lexicographic
0.0960000000	the mpii
0.0960000000	the euler
0.0960000000	not impose
0.0960000000	the designated
0.0960000000	the propensity
0.0960000000	certain assumptions
0.0960000000	the complementarity
0.0960000000	the jacobian
0.0960000000	the appendix
0.0960000000	another agent
0.0960000000	using wavelets
0.0960000000	make progress
0.0960000000	about 20
0.0960000000	thorough analysis
0.0960000000	thorough experiments
0.0960000000	more robustly
0.0960000000	more appealing
0.0960000000	looking images
0.0960000000	no manual
0.0960000000	very expressive
0.0960000000	after applying
0.0960000000	more interestingly
0.0960000000	very poor
0.0960000000	of stocks
0.0960000000	of responsibility
0.0960000000	of hate
0.0960000000	of spd
0.0960000000	of inliers
0.0960000000	very complicated
0.0960000000	via randomized
0.0960000000	via alternating
0.0960000000	no supervision
0.0960000000	to shrink
0.0960000000	give evidence
0.0960000000	little loss
0.0960000000	little theoretical
0.0960000000	an inverted
0.0960000000	an analogue
0.0960000000	to encompass
0.0960000000	to enter
0.0960000000	any reasonable
0.0960000000	to deduce
0.0960000000	to inject
0.0960000000	to assemble
0.0960000000	to gauge
0.0960000000	to penalize
0.0960000000	to characterise
0.0960000000	to attract
0.0960000000	to cooperate
0.0960000000	to bypass
0.0960000000	an overcomplete
0.0960000000	thus requiring
0.0960000000	to revise
0.0960000000	to bear
0.0960000000	an android
0.0960000000	to supplement
0.0960000000	to conform
0.0960000000	these days
0.0960000000	an instrument
0.0960000000	these claims
0.0960000000	re sampling
0.0960000000	further enhanced
0.0960000000	between consecutive
0.0960000000	by executing
0.0960000000	done efficiently
0.0960000000	also highlights
0.0960000000	at par
0.0960000000	better interpretability
0.0960000000	various stages
0.0960000000	various nlp
0.0960000000	last layer
0.0960000000	across categories
0.0960000000	next layer
0.0960000000	non blind
0.0960000000	and c4.5
0.0960000000	and slab
0.0960000000	and activitynet
0.0960000000	and mscoco
0.0960000000	with good
0.0960000000	non private
0.0960000000	across documents
0.0960000000	and rhythm
0.0960000000	and zhang
0.0960000000	across frames
0.0960000000	and glove
0.0960000000	a countable
0.0960000000	a reasoner
0.0960000000	or neutral
0.0960000000	a reconfigurable
0.0960000000	a longstanding
0.0960000000	a trusted
0.0960000000	in tandem
0.0960000000	in untrimmed
0.0960000000	a practitioner
0.0960000000	or exceeds
0.0960000000	or indirect
0.0960000000	10 years
0.0960000000	corresponding ground
0.0950000000	of computer vision and machine learning
0.0950000000	to two orders of magnitude
0.0950000000	for part of speech tagging
0.0950000000	a novel approach for learning
0.0950000000	a large amount of labeled
0.0950000000	the person re identification
0.0950000000	or in other words
0.0950000000	the quality of generated
0.0950000000	several synthetic and real
0.0950000000	with respect to existing
0.0950000000	the degrees of freedom
0.0950000000	the quality of machine
0.0950000000	used in computer vision
0.0950000000	the most important tasks
0.0950000000	the development of efficient
0.0950000000	the lack of large
0.0950000000	the most important features
0.0950000000	the most popular approaches
0.0950000000	with respect to state
0.0950000000	the efficiency and accuracy
0.0950000000	the most common approach
0.0950000000	the development of deep
0.0950000000	the robustness of deep
0.0950000000	of image and video
0.0950000000	for human computer interaction
0.0950000000	from time series data
0.0950000000	used in natural language
0.0950000000	the best known results
0.0950000000	an algorithm for computing
0.0950000000	one to one correspondence
0.0950000000	in order to establish
0.0950000000	in order to train
0.0950000000	in order to perform
0.0950000000	in order to test
0.0950000000	in order to derive
0.0950000000	in order to develop
0.0950000000	in order to model
0.0950000000	in order to represent
0.0950000000	in order to classify
0.0950000000	in order to apply
0.0950000000	in order to infer
0.0950000000	in order to tackle
0.0950000000	in order to support
0.0950000000	of publicly available datasets
0.0950000000	in order to alleviate
0.0950000000	for fast and accurate
0.0950000000	in order to extract
0.0950000000	for time series data
0.0950000000	in order to incorporate
0.0950000000	in order to enable
0.0950000000	in order to demonstrate
0.0950000000	in order to enhance
0.0950000000	in order to discover
0.0950000000	the majority of existing
0.0950000000	in order to explore
0.0950000000	in order to guarantee
0.0950000000	in order to assess
0.0950000000	in order to recover
0.0950000000	in order to construct
0.0950000000	in order to illustrate
0.0950000000	in order to validate
0.0950000000	in order to define
0.0950000000	in order to prevent
0.0950000000	in order to study
0.0950000000	in order to compare
0.0950000000	in order to compute
0.0950000000	in order to effectively
0.0950000000	in order to select
0.0950000000	in order to detect
0.0950000000	in order to produce
0.0950000000	in order to predict
0.0950000000	in order to estimate
0.0950000000	in order to create
0.0950000000	in order to minimize
0.0950000000	in order to adapt
0.0950000000	in order to determine
0.0950000000	in order to analyze
0.0950000000	in order to reach
0.0950000000	in order to optimize
0.0950000000	in order to automatically
0.0950000000	in order to ensure
0.0950000000	in order to control
0.0950000000	in order to handle
0.0950000000	in order to efficiently
0.0950000000	in order to preserve
0.0950000000	on part of speech
0.0950000000	a set of related
0.0950000000	a set of algorithms
0.0950000000	a set of items
0.0950000000	a set of latent
0.0950000000	a set of simple
0.0950000000	a set of binary
0.0950000000	a set of random
0.0950000000	a set of real
0.0950000000	a set of observed
0.0950000000	a set of input
0.0950000000	a set of experiments
0.0950000000	a set of synthetic
0.0950000000	a set of observations
0.0950000000	of entities and relations
0.0950000000	a set of benchmark
0.0950000000	the presence of large
0.0950000000	different types of images
0.0950000000	a set of multi
0.0950000000	a set of local
0.0950000000	the presence of adversarial
0.0950000000	the domain of image
0.0950000000	a set of candidate
0.0950000000	a method for generating
0.0950000000	used in many applications
0.0950000000	of precision and recall
0.0950000000	used in machine learning
0.0950000000	a widely used method
0.0950000000	a method for automatic
0.0950000000	a set of rules
0.0950000000	a set of probability
0.0950000000	the presence of multiple
0.0950000000	a method for detecting
0.0950000000	a method for automatically
0.0950000000	a method for computing
0.0950000000	a method to automatically
0.0950000000	different types of data
0.0950000000	a method for extracting
0.0950000000	a set of training
0.0950000000	the problem of object
0.0950000000	a well known problem
0.0950000000	the performance of deep
0.0950000000	in terms of information
0.0950000000	in terms of model
0.0950000000	the problem of supervised
0.0950000000	a variety of natural
0.0950000000	a well known technique
0.0950000000	a variety of settings
0.0950000000	a variety of domains
0.0950000000	a variety of contexts
0.0950000000	a variety of datasets
0.0950000000	the performance of machine
0.0950000000	a range of challenging
0.0950000000	a range of problems
0.0950000000	a range of applications
0.0950000000	a range of tasks
0.0950000000	using end to end
0.0950000000	a well known approach
0.0950000000	of words and phrases
0.0950000000	a variety of scenarios
0.0950000000	the problem of training
0.0950000000	the problem of low
0.0950000000	the problem of solving
0.0950000000	the problem of determining
0.0950000000	the problem of modeling
0.0950000000	a variety of image
0.0950000000	the problem of automatically
0.0950000000	the performance of existing
0.0950000000	in terms of average
0.0950000000	the problem of extracting
0.0950000000	the problem of missing
0.0950000000	in terms of image
0.0950000000	a variety of methods
0.0950000000	a variety of problems
0.0950000000	especially for large scale
0.0950000000	in terms of quality
0.0950000000	the problem of automatic
0.0950000000	the field of image
0.0950000000	the field of medical
0.0950000000	the problem of discovering
0.0950000000	the problem of human
0.0950000000	the problem of designing
0.0950000000	interest in machine learning
0.0950000000	the field of artificial
0.0950000000	a new approach called
0.0950000000	the problem of recognizing
0.0950000000	in terms of classification
0.0950000000	the problem of efficient
0.0950000000	the problem of maximizing
0.0950000000	in terms of efficiency
0.0950000000	a variety of real
0.0950000000	in terms of convergence
0.0950000000	the proposed system achieves
0.0950000000	the problem of optimizing
0.0950000000	a variety of simulated
0.0950000000	in terms of precision
0.0950000000	computer vision and image
0.0950000000	useful in many applications
0.0950000000	in terms of reconstruction
0.0950000000	in terms of bleu
0.0950000000	in terms of training
0.0950000000	in terms of psnr
0.0950000000	in terms of robustness
0.0950000000	in comparison to existing
0.0950000000	a subset of variables
0.0950000000	a class of algorithms
0.0950000000	the complexity of finding
0.0950000000	of many computer vision
0.0950000000	the use of multiple
0.0950000000	a very important role
0.0950000000	and do not require
0.0950000000	other state of art
0.0950000000	a class of probabilistic
0.0950000000	the ability to accurately
0.0950000000	the ability to automatically
0.0950000000	the ability to detect
0.0950000000	of alzheimer s disease
0.0950000000	more efficient than existing
0.0950000000	and computer vision applications
0.0950000000	in addition to providing
0.0950000000	in computer vision applications
0.0950000000	a number of problems
0.0950000000	a number of methods
0.0950000000	the context of natural
0.0950000000	a number of challenges
0.0950000000	a number of datasets
0.0950000000	a number of interesting
0.0950000000	a number of experiments
0.0950000000	a number of practical
0.0950000000	a sequence of images
0.0950000000	in computer vision tasks
0.0950000000	a number of recent
0.0950000000	a number of existing
0.0950000000	a number of applications
0.0950000000	for sequential decision making
0.0950000000	a number of important
0.0950000000	a number of benchmark
0.0950000000	a number of tasks
0.0950000000	a number of standard
0.0950000000	a number of real
0.0950000000	a number of approaches
0.0950000000	a number of examples
0.0950000000	of supervised and unsupervised
0.0950000000	and end to end
0.0950000000	the amount of computation
0.0950000000	a lot of research
0.0950000000	of end to end
0.0950000000	the principle of maximum
0.0950000000	in contrast to existing
0.0950000000	the sum of squares
0.0950000000	the amount of noise
0.0950000000	in contrast to standard
0.0950000000	for alzheimer s disease
0.0950000000	in contrast to prior
0.0950000000	in contrast to traditional
0.0950000000	in contrast to conventional
0.0950000000	in comparison with existing
0.0950000000	different levels of abstraction
0.0950000000	a pair of images
0.0950000000	the number of false
0.0950000000	the number of rounds
0.0950000000	the task of finding
0.0950000000	a state of art
0.0950000000	however in real world
0.0950000000	the task of extracting
0.0950000000	towards end to end
0.0950000000	in human computer interaction
0.0950000000	the number of channels
0.0950000000	a framework for learning
0.0950000000	the number of times
0.0950000000	the number of neurons
0.0950000000	the number of dimensions
0.0950000000	the number of required
0.0950000000	interest in recent years
0.0950000000	the task of automatically
0.0950000000	the task of classifying
0.0950000000	the task of action
0.0950000000	the task of generating
0.0950000000	the task of detecting
0.0950000000	the task of estimating
0.0950000000	an ensemble of deep
0.0950000000	to deal with large
0.0950000000	of state of art
0.0950000000	as well as providing
0.0950000000	the most challenging problems
0.0950000000	as well as deep
0.0950000000	as well as real
0.0950000000	as well as provide
0.0950000000	to deal with complex
0.0950000000	as well as computational
0.0950000000	the process of extracting
0.0950000000	the process of finding
0.0950000000	a family of algorithms
0.0950000000	while taking into account
0.0950000000	the meaning of words
0.0950000000	the results of experiments
0.0950000000	the robustness and accuracy
0.0950000000	used to simulate
0.0950000000	a non standard
0.0950000000	amount of annotated
0.0950000000	well known methods
0.0950000000	used to increase
0.0950000000	and least squares
0.0950000000	well known algorithms
0.0950000000	a non gaussian
0.0950000000	used to design
0.0950000000	the same cluster
0.0950000000	the same data
0.0950000000	n 1 4
0.0950000000	and time varying
0.0950000000	three different datasets
0.0950000000	the same subject
0.0950000000	as in standard
0.0950000000	via back propagation
0.0950000000	used to retrieve
0.0950000000	of sequential data
0.0950000000	used to refine
0.0950000000	well known image
0.0950000000	using computer vision
0.0950000000	well known datasets
0.0950000000	well known benchmark
0.0950000000	up to 20
0.0950000000	describe and analyze
0.0950000000	known to perform
0.0950000000	the same manner
0.0950000000	used to efficiently
0.0950000000	used to reconstruct
0.0950000000	used to discover
0.0950000000	the same task
0.0950000000	but not necessarily
0.0950000000	used to visualize
0.0950000000	and co occurrence
0.0950000000	a non local
0.0950000000	a non asymptotic
0.0950000000	used to address
0.0950000000	used to automatically
0.0950000000	the same distribution
0.0950000000	a thorough evaluation
0.0950000000	up to 50
0.0950000000	the same framework
0.0950000000	used to handle
0.0950000000	known to provide
0.0950000000	well known problem
0.0950000000	with non smooth
0.0950000000	the same category
0.0950000000	used to speed
0.0950000000	and time series
0.0950000000	and computer vision
0.0950000000	a thorough empirical
0.0950000000	available from https
0.0950000000	well known method
0.0950000000	used to validate
0.0950000000	a non uniform
0.0950000000	a non negative
0.0950000000	used to understand
0.0950000000	the same computational
0.0950000000	well known techniques
0.0950000000	used to analyze
0.0950000000	the same features
0.0950000000	and time complexity
0.0950000000	find near optimal
0.0950000000	with non convex
0.0950000000	a non smooth
0.0950000000	the same size
0.0950000000	the second contribution
0.0950000000	well known technique
0.0950000000	found many applications
0.0950000000	used to initialize
0.0950000000	known to suffer
0.0950000000	up to 10
0.0950000000	up to 15
0.0950000000	the same problem
0.0950000000	used to combine
0.0950000000	used to enhance
0.0950000000	amount of attention
0.0950000000	used to study
0.0950000000	the latter approach
0.0950000000	the least square
0.0950000000	used to track
0.0950000000	the last layer
0.0950000000	the last couple
0.0950000000	associated with multiple
0.0950000000	the same model
0.0950000000	the same network
0.0950000000	the same dataset
0.0950000000	the same document
0.0950000000	the same input
0.0950000000	the same architecture
0.0950000000	the same underlying
0.0950000000	the same pattern
0.0950000000	the same approach
0.0950000000	the same performance
0.0950000000	the same classification
0.0950000000	the same training
0.0950000000	the same convergence
0.0950000000	the same space
0.0950000000	the same goal
0.0950000000	the same event
0.0950000000	the same rate
0.0950000000	the same algorithm
0.0950000000	the same spatial
0.0950000000	the same location
0.0950000000	into two groups
0.0950000000	for three dimensional
0.0950000000	amount of computation
0.0950000000	amount of research
0.0950000000	amount of unlabeled
0.0950000000	amount of noise
0.0950000000	amount of information
0.0950000000	amount of memory
0.0950000000	used to recover
0.0950000000	one or multiple
0.0950000000	into two steps
0.0950000000	into two classes
0.0950000000	used to demonstrate
0.0950000000	used to support
0.0950000000	used to approximate
0.0950000000	used to assess
0.0950000000	used to encode
0.0950000000	used to sample
0.0950000000	used to extend
0.0950000000	used to update
0.0950000000	used to adapt
0.0950000000	used to optimize
0.0950000000	used to characterize
0.0950000000	used to capture
0.0950000000	used to recognize
0.0950000000	used to form
0.0950000000	used to achieve
0.0950000000	used to accurately
0.0950000000	used to prove
0.0950000000	used to investigate
0.0950000000	used to cluster
0.0950000000	used to control
0.0950000000	of so called
0.0950000000	and then propose
0.0950000000	well as real
0.0950000000	used for modeling
0.0950000000	able to significantly
0.0950000000	a computer model
0.0950000000	able to reach
0.0950000000	able to effectively
0.0950000000	able to compute
0.0950000000	the following properties
0.0950000000	as time series
0.0950000000	the useful information
0.0950000000	on three challenging
0.0950000000	used for computing
0.0950000000	system for generating
0.0950000000	and then train
0.0950000000	an image with
0.0950000000	able to generalize
0.0950000000	at least 1
0.0950000000	able to match
0.0950000000	able to compare
0.0950000000	able to track
0.0950000000	able to express
0.0950000000	able to explain
0.0950000000	able to derive
0.0950000000	able to distinguish
0.0950000000	able to select
0.0950000000	able to correctly
0.0950000000	able to localize
0.0950000000	able to accurately
0.0950000000	able to construct
0.0950000000	able to successfully
0.0950000000	able to process
0.0950000000	able to preserve
0.0950000000	able to model
0.0950000000	able to estimate
0.0950000000	able to encode
0.0950000000	able to answer
0.0950000000	able to leverage
0.0950000000	able to reproduce
0.0950000000	able to incorporate
0.0950000000	able to train
0.0950000000	and then perform
0.0950000000	and then performs
0.0950000000	on three tasks
0.0950000000	well as provide
0.0950000000	and non parametric
0.0950000000	and non stationary
0.0950000000	well to unseen
0.0950000000	and then apply
0.0950000000	all three tasks
0.0950000000	able to understand
0.0950000000	and non smooth
0.0950000000	a computer vision
0.0950000000	and non gaussian
0.0950000000	well as providing
0.0950000000	way to perform
0.0950000000	and non negative
0.0950000000	able to discover
0.0950000000	on three datasets
0.0950000000	well as computational
0.0950000000	do not hold
0.0950000000	and then present
0.0950000000	do not change
0.0950000000	able to provide
0.0950000000	do not apply
0.0950000000	able to represent
0.0950000000	and then develop
0.0950000000	and then applying
0.0950000000	in on line
0.0950000000	well to large
0.0950000000	able to automatically
0.0950000000	in very high
0.0950000000	way to represent
0.0950000000	a computer aided
0.0950000000	and then applies
0.0950000000	used for predicting
0.0950000000	and f measure
0.0950000000	way of representing
0.0950000000	used for evaluation
0.0950000000	able to recognize
0.0950000000	way to incorporate
0.0950000000	way to solve
0.0950000000	well in practice
0.0950000000	way to provide
0.0950000000	way to improve
0.0950000000	way to increase
0.0950000000	way to achieve
0.0950000000	way to reduce
0.0950000000	way to capture
0.0950000000	way to learn
0.0950000000	used for learning
0.0950000000	able to quickly
0.0950000000	way to address
0.0950000000	and k nn
0.0950000000	able to efficiently
0.0950000000	way to model
0.0950000000	top 1 error
0.0950000000	do not incorporate
0.0950000000	do not directly
0.0950000000	used for testing
0.0950000000	system for automatic
0.0950000000	do not include
0.0950000000	system in order
0.0950000000	two dimensional 2d
0.0950000000	rather than directly
0.0950000000	rather than simply
0.0950000000	used for solving
0.0950000000	do not provide
0.0950000000	do not explicitly
0.0950000000	do not capture
0.0950000000	do not suffer
0.0950000000	do not generalize
0.0950000000	do not address
0.0950000000	the following questions
0.0950000000	do not exploit
0.0950000000	do not exist
0.0950000000	the following contributions
0.0950000000	the following characteristics
0.0950000000	several computer vision
0.0950000000	on three large
0.0950000000	on three standard
0.0950000000	on three public
0.0950000000	used for finding
0.0950000000	used for estimating
0.0950000000	two novel approaches
0.0950000000	two sub tasks
0.0950000000	3d reconstruction of
0.0950000000	show in experiments
0.0950000000	both on synthetic
0.0950000000	used for multi
0.0950000000	used for evaluating
0.0950000000	such as natural
0.0950000000	a novel multi
0.0950000000	a novel probabilistic
0.0950000000	a novel supervised
0.0950000000	such as illumination
0.0950000000	a novel formulation
0.0950000000	such as resnet
0.0950000000	such as human
0.0950000000	a novel sparse
0.0950000000	such as denoising
0.0950000000	such as linear
0.0950000000	such as news
0.0950000000	such as local
0.0950000000	such as mobile
0.0950000000	such as multi
0.0950000000	such as learning
0.0950000000	such as feature
0.0950000000	such as word
0.0950000000	such as video
0.0950000000	such as imagenet
0.0950000000	such as mnist
0.0950000000	such as deep
0.0950000000	such as medical
0.0950000000	a novel neural
0.0950000000	such as dropout
0.0950000000	such as random
0.0950000000	such as robotics
0.0950000000	such as gaussian
0.0950000000	the time varying
0.0950000000	such as text
0.0950000000	such as clustering
0.0950000000	such as model
0.0950000000	a novel task
0.0950000000	such as gradient
0.0950000000	of non gaussian
0.0950000000	of non negative
0.0950000000	of non linear
0.0950000000	the first provably
0.0950000000	the first paper
0.0950000000	of non rigid
0.0950000000	on various tasks
0.0950000000	a system called
0.0950000000	such as low
0.0950000000	an l 1
0.0950000000	a given domain
0.0950000000	a novel distributed
0.0950000000	according to user
0.0950000000	the first international
0.0950000000	such as sentiment
0.0950000000	such as 3d
0.0950000000	while most existing
0.0950000000	such as noise
0.0950000000	such as high
0.0950000000	a novel learning
0.0950000000	the first successful
0.0950000000	such as convolutional
0.0950000000	the whole brain
0.0950000000	a novel recurrent
0.0950000000	such as automatic
0.0950000000	such as data
0.0950000000	such as images
0.0950000000	to second order
0.0950000000	a novel strategy
0.0950000000	in many problems
0.0950000000	such as recurrent
0.0950000000	such as classification
0.0950000000	a better choice
0.0950000000	by using deep
0.0950000000	a novel generative
0.0950000000	in various ways
0.0950000000	in various forms
0.0950000000	in many data
0.0950000000	in many fields
0.0950000000	in various domains
0.0950000000	in two dimensions
0.0950000000	a novel image
0.0950000000	such as gender
0.0950000000	a serious problem
0.0950000000	the first comprehensive
0.0950000000	a novel visual
0.0950000000	a given threshold
0.0950000000	a novel online
0.0950000000	such as variational
0.0950000000	a better performance
0.0950000000	such as pose
0.0950000000	a given point
0.0950000000	a given query
0.0950000000	a given number
0.0950000000	a given target
0.0950000000	a given task
0.0950000000	a novel mechanism
0.0950000000	a novel fully
0.0950000000	in two aspects
0.0950000000	a novel algorithmic
0.0950000000	such as sparsity
0.0950000000	a novel criterion
0.0950000000	a novel local
0.0950000000	a novel dynamic
0.0950000000	a novel methodology
0.0950000000	a novel problem
0.0950000000	a novel joint
0.0950000000	a novel embedding
0.0950000000	a novel efficient
0.0950000000	a novel convolutional
0.0950000000	a novel end
0.0950000000	a novel metric
0.0950000000	a given computational
0.0950000000	a novel theoretical
0.0950000000	in three dimensional
0.0950000000	in two stages
0.0950000000	a novel sampling
0.0950000000	in various fields
0.0950000000	a novel active
0.0950000000	such as online
0.0950000000	in many scenarios
0.0950000000	a novel cross
0.0950000000	such as color
0.0950000000	a novel paradigm
0.0950000000	a one shot
0.0950000000	between two variables
0.0950000000	such as lasso
0.0950000000	a novel dataset
0.0950000000	in three steps
0.0950000000	a novel notion
0.0950000000	time and memory
0.0950000000	in many real
0.0950000000	in many tasks
0.0950000000	a given language
0.0950000000	such as sparse
0.0950000000	instead of learning
0.0950000000	such as kernel
0.0950000000	a novel face
0.0950000000	in one dimension
0.0950000000	a novel automatic
0.0950000000	a given graph
0.0950000000	a novel spatial
0.0950000000	such as svm
0.0950000000	a novel robust
0.0950000000	a certain extent
0.0950000000	a certain threshold
0.0950000000	a novel data
0.0950000000	such as segmentation
0.0950000000	in various applications
0.0950000000	in many visual
0.0950000000	between two consecutive
0.0950000000	a novel unsupervised
0.0950000000	a novel objective
0.0950000000	in many domains
0.0950000000	such as spectral
0.0950000000	a novel adaptive
0.0950000000	such as e.g
0.0950000000	a novel inference
0.0950000000	the first framework
0.0950000000	such as genetic
0.0950000000	between two sentences
0.0950000000	a novel representation
0.0950000000	time and energy
0.0950000000	in various areas
0.0950000000	in many languages
0.0950000000	in two phases
0.0950000000	such as support
0.0950000000	in two parts
0.0950000000	such as character
0.0950000000	the time consuming
0.0950000000	such as wordnet
0.0950000000	from different domains
0.0950000000	a novel bayesian
0.0950000000	in non stationary
0.0950000000	the whole network
0.0950000000	the first issue
0.0950000000	in many situations
0.0950000000	a novel unified
0.0950000000	0 and 1
0.0950000000	the whole set
0.0950000000	in many image
0.0950000000	this in turn
0.0950000000	such as matrix
0.0950000000	such as stochastic
0.0950000000	a given context
0.0950000000	a novel training
0.0950000000	a given text
0.0950000000	such as shape
0.0950000000	a novel optimization
0.0950000000	the whole process
0.0950000000	a novel concept
0.0950000000	instead of directly
0.0950000000	such as network
0.0950000000	of non stationary
0.0950000000	such as visual
0.0950000000	such as autonomous
0.0950000000	a certain degree
0.0950000000	a certain sense
0.0950000000	a given document
0.0950000000	a certain level
0.0950000000	a given class
0.0950000000	such as action
0.0950000000	a novel view
0.0950000000	the first results
0.0950000000	a better approximation
0.0950000000	in many ways
0.0950000000	such as sift
0.0950000000	the time domain
0.0950000000	time and cost
0.0950000000	from different sources
0.0950000000	such as social
0.0950000000	the 3d world
0.0950000000	a novel measure
0.0950000000	a given sample
0.0950000000	a novel single
0.0950000000	a novel scheme
0.0950000000	a better solution
0.0950000000	a novel design
0.0950000000	in many settings
0.0950000000	between two nodes
0.0950000000	a better generalization
0.0950000000	the first task
0.0950000000	in one shot
0.0950000000	the whole video
0.0950000000	a novel statistical
0.0950000000	a given problem
0.0950000000	a given object
0.0950000000	a novel computational
0.0950000000	the whole dataset
0.0950000000	the whole model
0.0950000000	the whole data
0.0950000000	the whole framework
0.0950000000	the first study
0.0950000000	the first deep
0.0950000000	the first efficient
0.0950000000	the first steps
0.0950000000	the first theoretical
0.0950000000	the first contribution
0.0950000000	the first computationally
0.0950000000	the first result
0.0950000000	the first fully
0.0950000000	the first implementation
0.0950000000	most of existing
0.0950000000	bottom up approach
0.0950000000	on various benchmarks
0.0950000000	on various datasets
0.0950000000	from different perspectives
0.0950000000	from different classes
0.0950000000	from different angles
0.0950000000	from different views
0.0950000000	many other applications
0.0950000000	than other methods
0.0950000000	likely to occur
0.0950000000	seen during training
0.0950000000	necessary to achieve
0.0950000000	the different stages
0.0950000000	to very large
0.0950000000	at different times
0.0950000000	at different locations
0.0950000000	and more efficient
0.0950000000	and back propagation
0.0950000000	to several baselines
0.0950000000	the top layer
0.0950000000	take as input
0.0950000000	and more accurate
0.0950000000	and more complex
0.0950000000	and more specifically
0.0950000000	and more robust
0.0950000000	and more stable
0.0950000000	and more recently
0.0950000000	interest in learning
0.0950000000	however in practice
0.0950000000	and more complicated
0.0950000000	and more general
0.0950000000	with ell 1
0.0950000000	at different resolutions
0.0950000000	interest in developing
0.0950000000	useful in practice
0.0950000000	at different layers
0.0950000000	at different stages
0.0950000000	the three dimensional
0.0950000000	on different tasks
0.0950000000	to one mapping
0.0950000000	even in cases
0.0950000000	the top 1
0.0950000000	use of statistical
0.0950000000	use of visual
0.0950000000	and more important
0.0950000000	novel and effective
0.0950000000	the three tasks
0.0950000000	the top 5
0.0950000000	the top performing
0.0950000000	for sequential data
0.0950000000	use of large
0.0950000000	on different datasets
0.0950000000	use of language
0.0950000000	however in contrast
0.0950000000	however in real
0.0950000000	two new datasets
0.0950000000	two new algorithms
0.0950000000	use of existing
0.0950000000	use of local
0.0950000000	novel and efficient
0.0950000000	with other models
0.0950000000	much more complex
0.0950000000	not only reduces
0.0950000000	not only improve
0.0950000000	a few samples
0.0950000000	a new online
0.0950000000	a new hierarchical
0.0950000000	with other methods
0.0950000000	and to predict
0.0950000000	a new statistical
0.0950000000	a time consuming
0.0950000000	not only outperforms
0.0950000000	and to evaluate
0.0950000000	and to reduce
0.0950000000	and to detect
0.0950000000	and also provide
0.0950000000	and also achieves
0.0950000000	and or graph
0.0950000000	much more effective
0.0950000000	and to identify
0.0950000000	a new strategy
0.0950000000	of time varying
0.0950000000	and two real
0.0950000000	a new bayesian
0.0950000000	a new efficient
0.0950000000	a new view
0.0950000000	a new parameter
0.0950000000	a few seconds
0.0950000000	but also provide
0.0950000000	and to determine
0.0950000000	a new corpus
0.0950000000	a new analysis
0.0950000000	a new scheme
0.0950000000	a new objective
0.0950000000	a new instance
0.0950000000	a new large
0.0950000000	a new concept
0.0950000000	a new training
0.0950000000	a new feature
0.0950000000	a new probabilistic
0.0950000000	a new supervised
0.0950000000	a new sampling
0.0950000000	in several application
0.0950000000	or better results
0.0950000000	a new application
0.0950000000	a new approximate
0.0950000000	in different layers
0.0950000000	a new problem
0.0950000000	in different applications
0.0950000000	a new general
0.0950000000	in different scenarios
0.0950000000	but also achieves
0.0950000000	a new fully
0.0950000000	a new dimension
0.0950000000	a new robust
0.0950000000	a new sparse
0.0950000000	a new mechanism
0.0950000000	much more efficiently
0.0950000000	in several cases
0.0950000000	a new adaptive
0.0950000000	a few hours
0.0950000000	in other fields
0.0950000000	a new heuristic
0.0950000000	in other domains
0.0950000000	in different domains
0.0950000000	much more challenging
0.0950000000	a new computational
0.0950000000	a new hybrid
0.0950000000	a particular task
0.0950000000	a new multi
0.0950000000	a new tool
0.0950000000	a new language
0.0950000000	in several domains
0.0950000000	on two applications
0.0950000000	a new proof
0.0950000000	a new procedure
0.0950000000	a new fast
0.0950000000	a new mathematical
0.0950000000	a two player
0.0950000000	in several applications
0.0950000000	a new high
0.0950000000	a new stochastic
0.0950000000	or better performance
0.0950000000	a few minutes
0.0950000000	but also outperforms
0.0950000000	a new direction
0.0950000000	a new unsupervised
0.0950000000	in different contexts
0.0950000000	a few training
0.0950000000	a new convolutional
0.0950000000	and to analyze
0.0950000000	a new graph
0.0950000000	in other cases
0.0950000000	a new optimization
0.0950000000	much more difficult
0.0950000000	a new methodology
0.0950000000	with other approaches
0.0950000000	in several aspects
0.0950000000	a new structure
0.0950000000	a new theoretical
0.0950000000	a few examples
0.0950000000	a few thousand
0.0950000000	and to learn
0.0950000000	and to compare
0.0950000000	a new challenging
0.0950000000	in several ways
0.0950000000	in different settings
0.0950000000	and to avoid
0.0950000000	a new challenge
0.0950000000	a new regularization
0.0950000000	a new semi
0.0950000000	a second stage
0.0950000000	and different types
0.0950000000	a new interpretation
0.0950000000	the back propagation
0.0950000000	but also improves
0.0950000000	a few years
0.0950000000	and l 1
0.0950000000	with other algorithms
0.0950000000	using k means
0.0950000000	the other approaches
0.0950000000	the associated optimization
0.0950000000	the ones obtained
0.0950000000	the overall accuracy
0.0950000000	the overall classification
0.0950000000	the overall quality
0.0950000000	on two datasets
0.0950000000	the full joint
0.0950000000	the full dataset
0.0950000000	best known results
0.0950000000	not only achieves
0.0950000000	not only improves
0.0950000000	on non convex
0.0950000000	on two tasks
0.0950000000	on two real
0.0950000000	on two popular
0.0950000000	on two benchmarks
0.0950000000	on two large
0.0950000000	on two standard
0.0950000000	much more accurate
0.0950000000	much more general
0.0950000000	and other related
0.0950000000	the most similar
0.0950000000	and other parameters
0.0950000000	of three dimensional
0.0950000000	very good results
0.0950000000	very good performance
0.0950000000	of x ray
0.0950000000	this work explores
0.0950000000	the most general
0.0950000000	with different characteristics
0.0950000000	need to learn
0.0950000000	these two problems
0.0950000000	these two issues
0.0950000000	of 3d shapes
0.0950000000	the most complex
0.0950000000	these two steps
0.0950000000	this work shows
0.0950000000	these two techniques
0.0950000000	the most natural
0.0950000000	even more difficult
0.0950000000	the most representative
0.0950000000	and other fields
0.0950000000	to first order
0.0950000000	and other areas
0.0950000000	the most frequently
0.0950000000	and other applications
0.0950000000	to k means
0.0950000000	the zero shot
0.0950000000	for further processing
0.0950000000	the next level
0.0950000000	in time critical
0.0950000000	these two models
0.0950000000	with very large
0.0950000000	n n 1
0.0950000000	two different methods
0.0950000000	with back propagation
0.0950000000	with different sizes
0.0950000000	two different approaches
0.0950000000	with more complex
0.0950000000	the most basic
0.0950000000	the inner loop
0.0950000000	the most robust
0.0950000000	the most essential
0.0950000000	this work demonstrates
0.0950000000	this work aims
0.0950000000	need to solve
0.0950000000	need to perform
0.0950000000	need to develop
0.0950000000	need to compute
0.0950000000	the most famous
0.0950000000	the most powerful
0.0950000000	the most fundamental
0.0950000000	the most reliable
0.0950000000	the most critical
0.0950000000	the most active
0.0950000000	the most crucial
0.0950000000	the most advanced
0.0950000000	the technique on
0.0950000000	for further analysis
0.0950000000	for computer vision
0.0950000000	for computer aided
0.0950000000	for different tasks
0.0950000000	for different purposes
0.0950000000	for different applications
0.0950000000	two different datasets
0.0950000000	two different tasks
0.0950000000	two different ways
0.0950000000	work in progress
0.0950000000	this work studies
0.0950000000	this work considers
0.0950000000	to other languages
0.0950000000	of second order
0.0950000000	of interest e.g
0.0950000000	but more importantly
0.0950000000	to other approaches
0.0950000000	possible to build
0.0950000000	a good starting
0.0950000000	in such scenarios
0.0950000000	to make decisions
0.0950000000	to make predictions
0.0950000000	an n gram
0.0950000000	to make accurate
0.0950000000	to better results
0.0950000000	to better generalization
0.0950000000	to other algorithms
0.0950000000	to other tasks
0.0950000000	of first order
0.0950000000	to help users
0.0950000000	for non experts
0.0950000000	in such applications
0.0950000000	possible to predict
0.0950000000	possible to generate
0.0950000000	possible to apply
0.0950000000	possible to achieve
0.0950000000	to other existing
0.0950000000	a good choice
0.0950000000	in such situations
0.0950000000	a sequential model
0.0950000000	a different type
0.0950000000	a good performance
0.0950000000	a self adaptive
0.0950000000	possible to obtain
0.0950000000	or near optimal
0.0950000000	a 3 d
0.0950000000	to computer vision
0.0950000000	over other methods
0.0950000000	a good representation
0.0950000000	possible to perform
0.0950000000	for various tasks
0.0950000000	of useful information
0.0950000000	possible to identify
0.0950000000	the more traditional
0.0950000000	a good approximation
0.0950000000	a sequential decision
0.0950000000	a good model
0.0950000000	of possible values
0.0950000000	to other methods
0.0950000000	0 1 loss
0.0950000000	for very large
0.0950000000	the non parametric
0.0950000000	for non smooth
0.0950000000	possible to construct
0.0950000000	the work presented
0.0950000000	to better capture
0.0950000000	a good balance
0.0950000000	to other domains
0.0950000000	especially in cases
0.0950000000	provides more accurate
0.0950000000	from computer vision
0.0950000000	for non parametric
0.0950000000	for non stationary
0.0950000000	for various applications
0.0950000000	different from existing
0.0950000000	does not provide
0.0950000000	for 3d shape
0.0950000000	of different views
0.0950000000	of different layers
0.0950000000	of different sizes
0.0950000000	of different scales
0.0950000000	of computer science
0.0950000000	used as input
0.0950000000	of two main
0.0950000000	the computer vision
0.0950000000	given as input
0.0950000000	of one dimensional
0.0950000000	a very deep
0.0950000000	of different kinds
0.0950000000	of such approaches
0.0950000000	more than 70
0.0950000000	more than 80
0.0950000000	more than 90
0.0950000000	more than 10
0.0950000000	more than 3
0.0950000000	more than 1000
0.0950000000	for better performance
0.0950000000	does not fit
0.0950000000	a more complete
0.0950000000	the properties and
0.0950000000	of computer vision
0.0950000000	different from traditional
0.0950000000	does not assume
0.0950000000	the system achieves
0.0950000000	more than 30
0.0950000000	of different classes
0.0950000000	the computer science
0.0950000000	does not apply
0.0950000000	does not explicitly
0.0950000000	does not improve
0.0950000000	does not scale
0.0950000000	does not affect
0.0950000000	for more general
0.0950000000	more than 100
0.0950000000	on several synthetic
0.0950000000	of such data
0.0950000000	more than 20
0.0950000000	with k means
0.0950000000	of two stages
0.0950000000	a more principled
0.0950000000	a more challenging
0.0950000000	a more detailed
0.0950000000	a more complex
0.0950000000	a more powerful
0.0950000000	for more effective
0.0950000000	more than 50
0.0950000000	a very natural
0.0950000000	a more precise
0.0950000000	a more sophisticated
0.0950000000	of such methods
0.0950000000	a more natural
0.0950000000	o t 2
0.0950000000	a very popular
0.0950000000	a very limited
0.0950000000	a very high
0.0950000000	a very powerful
0.0950000000	does not increase
0.0950000000	more than 2
0.0950000000	of two steps
0.0950000000	a whole image
0.0950000000	a more flexible
0.0950000000	does not involve
0.0950000000	in computer aided
0.0950000000	of computer aided
0.0950000000	better than existing
0.0950000000	a more compact
0.0950000000	a more effective
0.0950000000	a more efficient
0.0950000000	the above issues
0.0950000000	does not change
0.0950000000	for classification of
0.0950000000	especially for small
0.0950000000	of different categories
0.0950000000	the two views
0.0950000000	for more efficient
0.0950000000	well on real
0.0950000000	on several challenging
0.0950000000	a very fast
0.0950000000	does not capture
0.0950000000	a very low
0.0950000000	a more robust
0.0950000000	of different modalities
0.0950000000	a very general
0.0950000000	a very flexible
0.0950000000	from various domains
0.0950000000	in computer graphics
0.0950000000	a more refined
0.0950000000	and second order
0.0950000000	a very effective
0.0950000000	more than 40
0.0950000000	by back propagation
0.0950000000	a very promising
0.0950000000	the two main
0.0950000000	more than half
0.0950000000	on several large
0.0950000000	a very efficient
0.0950000000	a more reliable
0.0950000000	for 3d action
0.0950000000	does not perform
0.0950000000	this new algorithm
0.0950000000	does not impose
0.0950000000	on several benchmarks
0.0950000000	better than previous
0.0950000000	especially for large
0.0950000000	the above challenges
0.0950000000	three dimensional 3d
0.0950000000	the problem at
0.0950000000	the two components
0.0950000000	the mean absolute
0.0950000000	this new task
0.0950000000	the two datasets
0.0950000000	the two modalities
0.0950000000	the two proposed
0.0950000000	the above problem
0.0950000000	the above problems
0.0950000000	from one image
0.0950000000	for certain types
0.0950000000	for zero shot
0.0950000000	for more accurate
0.0950000000	for more complex
0.0950000000	for least squares
0.0950000000	on several real
0.0950000000	on several classification
0.0950000000	on several data
0.0950000000	on several popular
0.0950000000	on several image
0.0950000000	on several standard
0.0950000000	different from previous
0.0950000000	work on learning
0.0950000000	used as inputs
0.0950000000	used as features
0.0950000000	used as feature
0.0950000000	this new model
0.0950000000	this new framework
0.0950000000	of very deep
0.0950000000	for many languages
0.0950000000	due to significant
0.0950000000	together to form
0.0950000000	under different conditions
0.0950000000	due to high
0.0950000000	with several state
0.0950000000	of new data
0.0950000000	less than 10
0.0950000000	across different modalities
0.0950000000	with much smaller
0.0950000000	in more general
0.0950000000	on very large
0.0950000000	a brief discussion
0.0950000000	between different modalities
0.0950000000	in new york
0.0950000000	a useful technique
0.0950000000	in first person
0.0950000000	a sub optimal
0.0950000000	a brief review
0.0950000000	last two decades
0.0950000000	and q learning
0.0950000000	even better performance
0.0950000000	for cifar 10
0.0950000000	due to large
0.0950000000	across different domains
0.0950000000	due to low
0.0950000000	due to privacy
0.0950000000	changes in viewpoint
0.0950000000	the new learning
0.0950000000	for many tasks
0.0950000000	for many applications
0.0950000000	for many years
0.0950000000	for many problems
0.0950000000	on computer vision
0.0950000000	for one shot
0.0950000000	from non parallel
0.0950000000	due to occlusion
0.0950000000	due to limited
0.0950000000	the best baseline
0.0950000000	and in fact
0.0950000000	of various sizes
0.0950000000	to more accurately
0.0950000000	used in order
0.0950000000	to further refine
0.0950000000	to further boost
0.0950000000	to more complex
0.0950000000	to more robust
0.0950000000	to use multiple
0.0950000000	to over fitting
0.0950000000	for on line
0.0950000000	and in practice
0.0950000000	and in vivo
0.0950000000	and in addition
0.0950000000	an example application
0.0950000000	on four public
0.0950000000	the best previously
0.0950000000	by k means
0.0950000000	with little loss
0.0950000000	using back propagation
0.0950000000	with time series
0.0950000000	the best approximation
0.0950000000	and show experimentally
0.0950000000	and show significant
0.0950000000	of various kinds
0.0950000000	and often requires
0.0950000000	allows to obtain
0.0950000000	on four datasets
0.0950000000	and in order
0.0950000000	on one dataset
0.0950000000	and with high
0.0950000000	and show promising
0.0950000000	and zero shot
0.0950000000	and in general
0.0950000000	to more accurate
0.0950000000	and in turn
0.0950000000	allows to learn
0.0950000000	the best case
0.0950000000	gives better performance
0.0950000000	the best solution
0.0950000000	to find solutions
0.0950000000	to more general
0.0950000000	furthermore in order
0.0950000000	the best single
0.0950000000	the best existing
0.0950000000	the best accuracy
0.0950000000	allows for efficient
0.0950000000	100 and imagenet
0.0950000000	system to detect
0.0950000000	used in previous
0.0950000000	for system identification
0.0950000000	the corresponding optimization
0.0950000000	the best methods
0.0950000000	the best classification
0.0950000000	the best previous
0.0950000000	the best method
0.0950000000	the best fixed
0.0950000000	the best fit
0.0950000000	the best match
0.0950000000	for such problems
0.0950000000	used in applications
0.0950000000	on four challenging
0.0950000000	from most existing
0.0950000000	out of reach
0.0950000000	used in machine
0.0950000000	used in practice
0.0950000000	then evaluate
0.0950000000	new developments
0.0950000000	this change
0.0950000000	both computationally
0.0950000000	work suggests
0.0950000000	this multi
0.0950000000	this local
0.0950000000	this exploration
0.0950000000	this large
0.0950000000	this improves
0.0950000000	this naturally
0.0950000000	sub problem
0.0950000000	one mapping
0.0950000000	ones obtained
0.0950000000	then solved
0.0950000000	still require
0.0950000000	one person
0.0950000000	this reduces
0.0950000000	then evaluated
0.0950000000	new solutions
0.0950000000	relatively high
0.0950000000	new feature
0.0950000000	new concepts
0.0950000000	new research
0.0950000000	new context
0.0950000000	new direction
0.0950000000	nearly linear
0.0950000000	one pixel
0.0950000000	new theoretical
0.0950000000	new paradigm
0.0950000000	this preliminary
0.0950000000	that purpose
0.0950000000	one synthetic
0.0950000000	one loss
0.0950000000	that training
0.0950000000	one common
0.0950000000	this abstract
0.0950000000	this special
0.0950000000	usually defined
0.0950000000	this bottleneck
0.0950000000	then investigate
0.0950000000	this dependence
0.0950000000	this module
0.0950000000	sub gradient
0.0950000000	one level
0.0950000000	this input
0.0950000000	this transformation
0.0950000000	still open
0.0950000000	still difficult
0.0950000000	still achieve
0.0950000000	one input
0.0950000000	few labels
0.0950000000	few samples
0.0950000000	few observations
0.0950000000	few parameters
0.0950000000	few labeled
0.0950000000	few years
0.0950000000	then design
0.0950000000	new bounds
0.0950000000	this effectively
0.0950000000	every word
0.0950000000	one application
0.0950000000	this calls
0.0950000000	few theoretical
0.0950000000	few data
0.0950000000	then applies
0.0950000000	this parameterization
0.0950000000	this viewpoint
0.0950000000	still requires
0.0950000000	still image
0.0950000000	this decomposition
0.0950000000	used benchmark
0.0950000000	used technique
0.0950000000	used deep
0.0950000000	used image
0.0950000000	used method
0.0950000000	used methods
0.0950000000	work studies
0.0950000000	other natural
0.0950000000	this development
0.0950000000	sub models
0.0950000000	other kinds
0.0950000000	this modeling
0.0950000000	then employed
0.0950000000	used benchmarks
0.0950000000	new analysis
0.0950000000	this heuristic
0.0950000000	both simulation
0.0950000000	new learning
0.0950000000	new parameter
0.0950000000	one versus
0.0950000000	one promising
0.0950000000	new area
0.0950000000	new fast
0.0950000000	new unseen
0.0950000000	new problems
0.0950000000	new deep
0.0950000000	new domains
0.0950000000	new understanding
0.0950000000	both architectures
0.0950000000	new framework
0.0950000000	new instances
0.0950000000	new error
0.0950000000	new architecture
0.0950000000	both memory
0.0950000000	new multi
0.0950000000	both random
0.0950000000	both computational
0.0950000000	both generative
0.0950000000	used algorithms
0.0950000000	both aspects
0.0950000000	new observations
0.0950000000	both temporal
0.0950000000	both segmentation
0.0950000000	both machine
0.0950000000	new words
0.0950000000	both languages
0.0950000000	both human
0.0950000000	both fully
0.0950000000	new graph
0.0950000000	both theory
0.0950000000	both semantic
0.0950000000	both small
0.0950000000	both objective
0.0950000000	both modalities
0.0950000000	both user
0.0950000000	both automatic
0.0950000000	then extracted
0.0950000000	this pipeline
0.0950000000	both images
0.0950000000	both learning
0.0950000000	new generation
0.0950000000	appropriate features
0.0950000000	new layers
0.0950000000	both data
0.0950000000	this specific
0.0950000000	new layer
0.0950000000	this opens
0.0950000000	this selection
0.0950000000	used datasets
0.0950000000	this link
0.0950000000	this behavior
0.0950000000	both settings
0.0950000000	this significantly
0.0950000000	new baseline
0.0950000000	both traditional
0.0950000000	both standard
0.0950000000	new object
0.0950000000	other potential
0.0950000000	new complexity
0.0950000000	this advantage
0.0950000000	both short
0.0950000000	new application
0.0950000000	one dimension
0.0950000000	both accurate
0.0950000000	new method
0.0950000000	both agents
0.0950000000	this linear
0.0950000000	this translation
0.0950000000	one neuron
0.0950000000	used approach
0.0950000000	new challenging
0.0950000000	this represents
0.0950000000	this design
0.0950000000	this open
0.0950000000	both text
0.0950000000	this choice
0.0950000000	this relation
0.0950000000	this competition
0.0950000000	one object
0.0950000000	this equivalence
0.0950000000	this involves
0.0950000000	this prediction
0.0950000000	this investigation
0.0950000000	this level
0.0950000000	this poses
0.0950000000	one variable
0.0950000000	both effective
0.0950000000	both networks
0.0950000000	other elements
0.0950000000	this reveals
0.0950000000	other statistical
0.0950000000	other learning
0.0950000000	other proposed
0.0950000000	this additional
0.0950000000	few examples
0.0950000000	other classes
0.0950000000	other measures
0.0950000000	other application
0.0950000000	other problems
0.0950000000	other low
0.0950000000	other works
0.0950000000	other modalities
0.0950000000	other words
0.0950000000	this distinction
0.0950000000	both recognition
0.0950000000	then processed
0.0950000000	both object
0.0950000000	both multi
0.0950000000	both techniques
0.0950000000	new architectures
0.0950000000	both word
0.0950000000	other state
0.0950000000	then performs
0.0950000000	new datasets
0.0950000000	this stage
0.0950000000	new representation
0.0950000000	new general
0.0950000000	new observation
0.0950000000	other high
0.0950000000	other traditional
0.0950000000	new state
0.0950000000	other graph
0.0950000000	new inference
0.0950000000	then explore
0.0950000000	new technique
0.0950000000	other common
0.0950000000	new results
0.0950000000	other competitive
0.0950000000	used data
0.0950000000	new adversarial
0.0950000000	then construct
0.0950000000	new high
0.0950000000	then solve
0.0950000000	other recent
0.0950000000	other variables
0.0950000000	then generates
0.0950000000	new global
0.0950000000	new form
0.0950000000	this unique
0.0950000000	one method
0.0950000000	both sets
0.0950000000	new capabilities
0.0950000000	this argument
0.0950000000	work represents
0.0950000000	this experiment
0.0950000000	new active
0.0950000000	other properties
0.0950000000	both directions
0.0950000000	other models
0.0950000000	new level
0.0950000000	that obtained
0.0950000000	show analytically
0.0950000000	one specific
0.0950000000	other regularization
0.0950000000	show performance
0.0950000000	other datasets
0.0950000000	this volume
0.0950000000	new computational
0.0950000000	this extended
0.0950000000	new visual
0.0950000000	this emerging
0.0950000000	this formalism
0.0950000000	both deep
0.0950000000	this brings
0.0950000000	both issues
0.0950000000	work investigates
0.0950000000	new network
0.0950000000	this limits
0.0950000000	this reduction
0.0950000000	this global
0.0950000000	this theoretical
0.0950000000	other unsupervised
0.0950000000	this integration
0.0950000000	show considerable
0.0950000000	other authors
0.0950000000	this meta
0.0950000000	this initial
0.0950000000	both domains
0.0950000000	work explores
0.0950000000	this comparison
0.0950000000	show high
0.0950000000	both online
0.0950000000	this performance
0.0950000000	this behaviour
0.0950000000	this tradeoff
0.0950000000	one model
0.0950000000	used directly
0.0950000000	this proposal
0.0950000000	this creates
0.0950000000	both natural
0.0950000000	this modification
0.0950000000	this trend
0.0950000000	appropriate model
0.0950000000	this learned
0.0950000000	this segmentation
0.0950000000	one word
0.0950000000	this deep
0.0950000000	one point
0.0950000000	one human
0.0950000000	one algorithm
0.0950000000	this fundamental
0.0950000000	this category
0.0950000000	other hand
0.0950000000	new optimization
0.0950000000	this generalizes
0.0950000000	one simple
0.0950000000	this combined
0.0950000000	this line
0.0950000000	this computational
0.0950000000	one dataset
0.0950000000	that problem
0.0950000000	one parameter
0.0950000000	one network
0.0950000000	one sample
0.0950000000	new type
0.0950000000	this presents
0.0950000000	show consistent
0.0950000000	this complex
0.0950000000	one key
0.0950000000	one case
0.0950000000	other relevant
0.0950000000	both 2d
0.0950000000	then learn
0.0950000000	one hand
0.0950000000	show empirical
0.0950000000	other classifiers
0.0950000000	this difference
0.0950000000	this extends
0.0950000000	new adaptive
0.0950000000	appropriate feature
0.0950000000	this taxonomy
0.0950000000	new questions
0.0950000000	other feature
0.0950000000	other parameters
0.0950000000	this works
0.0950000000	new applications
0.0950000000	still face
0.0950000000	this estimate
0.0950000000	that human
0.0950000000	both space
0.0950000000	one sentence
0.0950000000	show strong
0.0950000000	this facilitates
0.0950000000	that performance
0.0950000000	this classification
0.0950000000	this high
0.0950000000	sub task
0.0950000000	one popular
0.0950000000	one cluster
0.0950000000	new training
0.0950000000	work addresses
0.0950000000	this joint
0.0950000000	other alternatives
0.0950000000	one type
0.0950000000	other commonly
0.0950000000	sub images
0.0950000000	appropriate number
0.0950000000	work effectively
0.0950000000	other settings
0.0950000000	both applications
0.0950000000	other classical
0.0950000000	other real
0.0950000000	new efficient
0.0950000000	this benchmark
0.0950000000	this hierarchical
0.0950000000	this vision
0.0950000000	both depth
0.0950000000	this helps
0.0950000000	other metrics
0.0950000000	used effectively
0.0950000000	work proposes
0.0950000000	work introduces
0.0950000000	other deep
0.0950000000	this improvement
0.0950000000	this capability
0.0950000000	both convolutional
0.0950000000	this accuracy
0.0950000000	this regime
0.0950000000	appropriate conditions
0.0950000000	show significant
0.0950000000	this aspect
0.0950000000	this basis
0.0950000000	both classes
0.0950000000	this cost
0.0950000000	both offline
0.0950000000	other vision
0.0950000000	this unified
0.0950000000	this restriction
0.0950000000	new stochastic
0.0950000000	one framework
0.0950000000	other information
0.0950000000	new generative
0.0950000000	new definition
0.0950000000	sub space
0.0950000000	both model
0.0950000000	new test
0.0950000000	both positive
0.0950000000	usually require
0.0950000000	other neural
0.0950000000	new problem
0.0950000000	work presents
0.0950000000	work describes
0.0950000000	this increases
0.0950000000	this computation
0.0950000000	one instance
0.0950000000	show improvements
0.0950000000	other probabilistic
0.0950000000	show substantial
0.0950000000	this correspondence
0.0950000000	one node
0.0950000000	new concept
0.0950000000	this generative
0.0950000000	this permits
0.0950000000	both precision
0.0950000000	new evaluation
0.0950000000	new probabilistic
0.0950000000	other published
0.0950000000	this effort
0.0950000000	other stochastic
0.0950000000	new approximate
0.0950000000	this interaction
0.0950000000	other baseline
0.0950000000	then analyzed
0.0950000000	show competitive
0.0950000000	other domain
0.0950000000	this increase
0.0950000000	new variants
0.0950000000	both feature
0.0950000000	new semantic
0.0950000000	work considers
0.0950000000	sub graph
0.0950000000	this text
0.0950000000	show improvement
0.0950000000	this basic
0.0950000000	new scheme
0.0950000000	this important
0.0950000000	new input
0.0950000000	new insight
0.0950000000	both classical
0.0950000000	other important
0.0950000000	new implementation
0.0950000000	then introduced
0.0950000000	one solution
0.0950000000	new hierarchical
0.0950000000	this demonstrates
0.0950000000	both low
0.0950000000	both bayesian
0.0950000000	this factorization
0.0950000000	both deterministic
0.0950000000	both indoor
0.0950000000	both steps
0.0950000000	used widely
0.0950000000	then extended
0.0950000000	work extends
0.0950000000	new objects
0.0950000000	new environments
0.0950000000	new algorithm
0.0950000000	new terms
0.0950000000	new model
0.0950000000	new perspective
0.0950000000	new statistical
0.0950000000	new source
0.0950000000	new family
0.0950000000	new generalization
0.0950000000	new robust
0.0950000000	new word
0.0950000000	then proposed
0.0950000000	new languages
0.0950000000	new advances
0.0950000000	new result
0.0950000000	new hybrid
0.0950000000	new classifier
0.0950000000	new distance
0.0950000000	new interpretation
0.0950000000	then applying
0.0950000000	new promising
0.0950000000	new field
0.0950000000	new versions
0.0950000000	then perform
0.0950000000	new item
0.0950000000	new technology
0.0950000000	new scalable
0.0950000000	new user
0.0950000000	then trained
0.0950000000	b in
0.0950000000	then developed
0.0950000000	other sources
0.0950000000	new formulation
0.0950000000	then define
0.0950000000	new directions
0.0950000000	new tools
0.0950000000	new algorithmic
0.0950000000	then iteratively
0.0950000000	other results
0.0950000000	this negative
0.0950000000	other class
0.0950000000	then build
0.0950000000	other standard
0.0950000000	this test
0.0950000000	this book
0.0950000000	this operation
0.0950000000	work based
0.0950000000	other objects
0.0950000000	this empirical
0.0950000000	show applications
0.0950000000	one main
0.0950000000	other text
0.0950000000	then compare
0.0950000000	this subject
0.0950000000	show improved
0.0950000000	new database
0.0950000000	one challenge
0.0950000000	few methods
0.0950000000	this modality
0.0950000000	this hybrid
0.0950000000	one frame
0.0950000000	then jointly
0.0950000000	this discovery
0.0950000000	then prove
0.0950000000	this generic
0.0950000000	work demonstrates
0.0950000000	this construction
0.0950000000	this quantity
0.0950000000	this conjecture
0.0950000000	other features
0.0950000000	other data
0.0950000000	this generalization
0.0950000000	work builds
0.0950000000	show theoretically
0.0950000000	other cases
0.0950000000	other systems
0.0950000000	other conventional
0.0950000000	this weakness
0.0950000000	other regions
0.0950000000	then generalize
0.0950000000	then obtained
0.0950000000	then study
0.0950000000	then tested
0.0950000000	then employ
0.0950000000	then formulate
0.0950000000	then generate
0.0950000000	then analyze
0.0950000000	then considered
0.0950000000	new language
0.0950000000	then performed
0.0950000000	then exploit
0.0950000000	then examine
0.0950000000	new solution
0.0950000000	new sparse
0.0950000000	new models
0.0950000000	new convex
0.0950000000	new mathematical
0.0950000000	new tool
0.0950000000	every single
0.0950000000	every step
0.0950000000	every image
0.0950000000	every point
0.0950000000	usually considered
0.0950000000	usually limited
0.0950000000	usually performed
0.0950000000	2012 datasets
0.0950000000	as applications
0.0950000000	as twitter
0.0950000000	as general
0.0950000000	different image
0.0950000000	different objects
0.0950000000	different attributes
0.0950000000	s success
0.0950000000	first estimates
0.0950000000	overall results
0.0950000000	overall approach
0.0950000000	overall quality
0.0950000000	overall classification
0.0950000000	first stage
0.0950000000	several variations
0.0950000000	several language
0.0950000000	two clusters
0.0950000000	two dimensions
0.0950000000	two deep
0.0950000000	as global
0.0950000000	instead propose
0.0950000000	yet simple
0.0950000000	different dimensions
0.0950000000	different paths
0.0950000000	different components
0.0950000000	different probabilistic
0.0950000000	three dimensions
0.0950000000	different representation
0.0950000000	than real
0.0950000000	different objective
0.0950000000	less computational
0.0950000000	first analyze
0.0950000000	quite general
0.0950000000	use information
0.0950000000	best methods
0.0950000000	best method
0.0950000000	yet efficient
0.0950000000	different underlying
0.0950000000	two populations
0.0950000000	s requirements
0.0950000000	s complexity
0.0950000000	s body
0.0950000000	s capability
0.0950000000	s identity
0.0950000000	s information
0.0950000000	s current
0.0950000000	s uncertainty
0.0950000000	s original
0.0950000000	s results
0.0950000000	s experience
0.0950000000	s effectiveness
0.0950000000	s distance
0.0950000000	s utility
0.0950000000	s perspective
0.0950000000	s preference
0.0950000000	s knowledge
0.0950000000	s belief
0.0950000000	s method
0.0950000000	s predictions
0.0950000000	s potential
0.0950000000	s capabilities
0.0950000000	s architecture
0.0950000000	s internal
0.0950000000	s state
0.0950000000	s actions
0.0950000000	s policy
0.0950000000	particular structure
0.0950000000	s type
0.0950000000	novel information
0.0950000000	2 times
0.0950000000	particular dataset
0.0950000000	different convolutional
0.0950000000	several strategies
0.0950000000	s learning
0.0950000000	particular problem
0.0950000000	3d 2d
0.0950000000	s parameters
0.0950000000	into text
0.0950000000	different optimization
0.0950000000	different object
0.0950000000	different subjects
0.0950000000	three problems
0.0950000000	different challenging
0.0950000000	novel statistical
0.0950000000	novel design
0.0950000000	three languages
0.0950000000	novel contribution
0.0950000000	novel real
0.0950000000	novel evaluation
0.0950000000	novel features
0.0950000000	three levels
0.0950000000	different source
0.0950000000	novel dynamic
0.0950000000	novel images
0.0950000000	novel solution
0.0950000000	novel methodology
0.0950000000	several small
0.0950000000	novel supervised
0.0950000000	novel problem
0.0950000000	novel concept
0.0950000000	novel domain
0.0950000000	novel words
0.0950000000	novel joint
0.0950000000	novel models
0.0950000000	novel loss
0.0950000000	novel hybrid
0.0950000000	novel efficient
0.0950000000	novel sparse
0.0950000000	novel tasks
0.0950000000	novel optimization
0.0950000000	novel object
0.0950000000	novel parallel
0.0950000000	novel application
0.0950000000	novel analysis
0.0950000000	novel stochastic
0.0950000000	novel strategy
0.0950000000	novel representation
0.0950000000	novel word
0.0950000000	novel data
0.0950000000	novel theoretical
0.0950000000	novel convolutional
0.0950000000	novel recurrent
0.0950000000	novel technique
0.0950000000	novel image
0.0950000000	novel training
0.0950000000	novel algorithm
0.0950000000	novel unsupervised
0.0950000000	novel weight
0.0950000000	novel learning
0.0950000000	novel hierarchical
0.0950000000	novel generative
0.0950000000	novel measure
0.0950000000	novel method
0.0950000000	novel framework
0.0950000000	novel applications
0.0950000000	novel probabilistic
0.0950000000	novel neural
0.0950000000	novel model
0.0950000000	novel deep
0.0950000000	novel architectures
0.0950000000	novel architecture
0.0950000000	first steps
0.0950000000	novel task
0.0950000000	first estimate
0.0950000000	novel algorithmic
0.0950000000	less complex
0.0950000000	less noisy
0.0950000000	less relevant
0.0950000000	less important
0.0950000000	less data
0.0950000000	less effective
0.0950000000	less computation
0.0950000000	best solution
0.0950000000	best baseline
0.0950000000	much recent
0.0950000000	much information
0.0950000000	much data
0.0950000000	s rule
0.0950000000	s prior
0.0950000000	s action
0.0950000000	s surface
0.0950000000	novel combination
0.0950000000	novel adaptive
0.0950000000	less parameters
0.0950000000	use classification
0.0950000000	use local
0.0950000000	novel semantic
0.0950000000	less training
0.0950000000	use real
0.0950000000	use bayesian
0.0950000000	use statistical
0.0950000000	use image
0.0950000000	use linear
0.0950000000	use standard
0.0950000000	use multiple
0.0950000000	use variational
0.0950000000	use large
0.0950000000	use data
0.0950000000	use high
0.0950000000	use convolutional
0.0950000000	use recurrent
0.0950000000	use stochastic
0.0950000000	use random
0.0950000000	use latent
0.0950000000	use hand
0.0950000000	use unsupervised
0.0950000000	into neural
0.0950000000	use word
0.0950000000	use language
0.0950000000	into convolutional
0.0950000000	best strategy
0.0950000000	best response
0.0950000000	into coherent
0.0950000000	best features
0.0950000000	best linear
0.0950000000	best match
0.0950000000	best accuracy
0.0950000000	best matching
0.0950000000	best algorithm
0.0950000000	best expert
0.0950000000	best approximation
0.0950000000	2 regularization
0.0950000000	first learning
0.0950000000	best view
0.0950000000	best classifier
0.0950000000	best case
0.0950000000	best set
0.0950000000	best single
0.0950000000	best result
0.0950000000	best models
0.0950000000	best model
0.0950000000	best reported
0.0950000000	different results
0.0950000000	among variables
0.0950000000	among words
0.0950000000	among researchers
0.0950000000	among objects
0.0950000000	among data
0.0950000000	novel feature
0.0950000000	s behaviour
0.0950000000	two families
0.0950000000	either require
0.0950000000	either directly
0.0950000000	s search
0.0950000000	as virtual
0.0950000000	as functional
0.0950000000	as examples
0.0950000000	two hidden
0.0950000000	two optimization
0.0950000000	as identifying
0.0950000000	particular importance
0.0950000000	as protein
0.0950000000	several features
0.0950000000	as illumination
0.0950000000	different class
0.0950000000	as auxiliary
0.0950000000	first algorithm
0.0950000000	into standard
0.0950000000	two concepts
0.0950000000	two parameters
0.0950000000	s representation
0.0950000000	several works
0.0950000000	two contributions
0.0950000000	as mobile
0.0950000000	as background
0.0950000000	two recently
0.0950000000	as effectively
0.0950000000	as powerful
0.0950000000	three strategies
0.0950000000	as reinforcement
0.0950000000	two properties
0.0950000000	three issues
0.0950000000	three step
0.0950000000	as machine
0.0950000000	several theoretical
0.0950000000	than models
0.0950000000	as improved
0.0950000000	as evolutionary
0.0950000000	novel tree
0.0950000000	as denoising
0.0950000000	two objectives
0.0950000000	as conditional
0.0950000000	into binary
0.0950000000	different experiments
0.0950000000	two visual
0.0950000000	as basic
0.0950000000	3d depth
0.0950000000	different perspectives
0.0950000000	2 layer
0.0950000000	as performing
0.0950000000	as initial
0.0950000000	several heuristics
0.0950000000	two goals
0.0950000000	first extracts
0.0950000000	as strong
0.0950000000	different concepts
0.0950000000	different benchmarks
0.0950000000	different points
0.0950000000	first algorithms
0.0950000000	first component
0.0950000000	first proposed
0.0950000000	first frame
0.0950000000	first demonstrate
0.0950000000	first analysis
0.0950000000	as proposed
0.0950000000	first define
0.0950000000	first phase
0.0950000000	first approach
0.0950000000	two convolutional
0.0950000000	first apply
0.0950000000	first introduced
0.0950000000	first layer
0.0950000000	first attempt
0.0950000000	different segments
0.0950000000	different application
0.0950000000	first real
0.0950000000	first experiments
0.0950000000	different language
0.0950000000	first provide
0.0950000000	three key
0.0950000000	different behavior
0.0950000000	different statistical
0.0950000000	as function
0.0950000000	several alternatives
0.0950000000	first learn
0.0950000000	first obtain
0.0950000000	different authors
0.0950000000	first result
0.0950000000	first learns
0.0950000000	as linear
0.0950000000	two processes
0.0950000000	different purposes
0.0950000000	several layers
0.0950000000	s dynamics
0.0950000000	different parameters
0.0950000000	than 100
0.0950000000	first derive
0.0950000000	3d environments
0.0950000000	as nodes
0.0950000000	as supervision
0.0950000000	two related
0.0950000000	three valued
0.0950000000	as signals
0.0950000000	two directions
0.0950000000	s structure
0.0950000000	first empirical
0.0950000000	s style
0.0950000000	best performance
0.0950000000	two information
0.0950000000	different distributions
0.0950000000	three methods
0.0950000000	as short
0.0950000000	than deep
0.0950000000	different loss
0.0950000000	first goal
0.0950000000	different information
0.0950000000	different rates
0.0950000000	2016 task
0.0950000000	three examples
0.0950000000	different text
0.0950000000	different variables
0.0950000000	two random
0.0950000000	different directions
0.0950000000	several learning
0.0950000000	two linear
0.0950000000	novel insights
0.0950000000	first deep
0.0950000000	two person
0.0950000000	particular kind
0.0950000000	different scenes
0.0950000000	as quantified
0.0950000000	as correlation
0.0950000000	several classifiers
0.0950000000	two individuals
0.0950000000	as formal
0.0950000000	different fields
0.0950000000	two times
0.0950000000	different communities
0.0950000000	two networks
0.0950000000	than classical
0.0950000000	several baseline
0.0950000000	different spatial
0.0950000000	as unsupervised
0.0950000000	as basis
0.0950000000	two scenarios
0.0950000000	different perspective
0.0950000000	two successive
0.0950000000	into multi
0.0950000000	as noise
0.0950000000	three factors
0.0950000000	into subsets
0.0950000000	different model
0.0950000000	into vectors
0.0950000000	several typical
0.0950000000	different camera
0.0950000000	2 error
0.0950000000	as cross
0.0950000000	different poses
0.0950000000	different regularization
0.0950000000	as classification
0.0950000000	as gender
0.0950000000	several visual
0.0950000000	two neural
0.0950000000	two limitations
0.0950000000	several open
0.0950000000	as hard
0.0950000000	several major
0.0950000000	different groups
0.0950000000	different neural
0.0950000000	different scale
0.0950000000	into clusters
0.0950000000	first theoretical
0.0950000000	than 8
0.0950000000	three language
0.0950000000	several simulated
0.0950000000	as e.g
0.0950000000	different situations
0.0950000000	different structure
0.0950000000	two conditions
0.0950000000	three parameters
0.0950000000	three neural
0.0950000000	s environment
0.0950000000	two decades
0.0950000000	different training
0.0950000000	as lower
0.0950000000	three standard
0.0950000000	first principles
0.0950000000	different times
0.0950000000	three widely
0.0950000000	as imagenet
0.0950000000	three models
0.0950000000	three applications
0.0950000000	three classes
0.0950000000	three large
0.0950000000	different design
0.0950000000	into deep
0.0950000000	several image
0.0950000000	several natural
0.0950000000	first pass
0.0950000000	different patterns
0.0950000000	first review
0.0950000000	different platforms
0.0950000000	three contributions
0.0950000000	different conditions
0.0950000000	as important
0.0950000000	two alternative
0.0950000000	different steps
0.0950000000	three years
0.0950000000	first trained
0.0950000000	as regularization
0.0950000000	first study
0.0950000000	different sensors
0.0950000000	three fundamental
0.0950000000	different benchmark
0.0950000000	two modules
0.0950000000	different properties
0.0950000000	best approach
0.0950000000	several categories
0.0950000000	different words
0.0950000000	different topics
0.0950000000	into feature
0.0950000000	different test
0.0950000000	as learning
0.0950000000	different social
0.0950000000	first develop
0.0950000000	different corpora
0.0950000000	different constraints
0.0950000000	as benchmark
0.0950000000	different actions
0.0950000000	s objective
0.0950000000	as texture
0.0950000000	different task
0.0950000000	as individual
0.0950000000	different individuals
0.0950000000	as complex
0.0950000000	into separate
0.0950000000	different structures
0.0950000000	several test
0.0950000000	different metrics
0.0950000000	as future
0.0950000000	several domains
0.0950000000	than binary
0.0950000000	different visual
0.0950000000	first discuss
0.0950000000	s prediction
0.0950000000	different notions
0.0950000000	different input
0.0950000000	first examine
0.0950000000	two experiments
0.0950000000	different weights
0.0950000000	three basic
0.0950000000	different nature
0.0950000000	as normal
0.0950000000	different users
0.0950000000	as pixel
0.0950000000	different random
0.0950000000	different inputs
0.0950000000	several extensions
0.0950000000	different assumptions
0.0950000000	different performance
0.0950000000	3d points
0.0950000000	two extensions
0.0950000000	different cameras
0.0950000000	different factors
0.0950000000	different clusters
0.0950000000	as natural
0.0950000000	several classification
0.0950000000	three layers
0.0950000000	as solving
0.0950000000	s preferences
0.0950000000	3d datasets
0.0950000000	different combination
0.0950000000	as benchmarks
0.0950000000	as joint
0.0950000000	different distances
0.0950000000	two existing
0.0950000000	three views
0.0950000000	two notions
0.0950000000	as search
0.0950000000	than 20
0.0950000000	as visual
0.0950000000	as activity
0.0950000000	as commonly
0.0950000000	three advantages
0.0950000000	several research
0.0950000000	different environments
0.0950000000	three categories
0.0950000000	two agents
0.0950000000	than 3
0.0950000000	different scene
0.0950000000	than directly
0.0950000000	several previous
0.0950000000	two state
0.0950000000	several alternative
0.0950000000	as maximum
0.0950000000	as medical
0.0950000000	different search
0.0950000000	as constrained
0.0950000000	several parameters
0.0950000000	into continuous
0.0950000000	different channels
0.0950000000	two target
0.0950000000	as action
0.0950000000	than baseline
0.0950000000	three ways
0.0950000000	as mnist
0.0950000000	as directed
0.0950000000	as kernel
0.0950000000	two baseline
0.0950000000	several images
0.0950000000	as svm
0.0950000000	first formulate
0.0950000000	s visual
0.0950000000	first method
0.0950000000	first successful
0.0950000000	as online
0.0950000000	different distance
0.0950000000	different size
0.0950000000	different images
0.0950000000	different illumination
0.0950000000	different criteria
0.0950000000	different approach
0.0950000000	different kernels
0.0950000000	as generalized
0.0950000000	particular class
0.0950000000	s goal
0.0950000000	three layer
0.0950000000	two probability
0.0950000000	several representative
0.0950000000	three algorithms
0.0950000000	three cases
0.0950000000	three typical
0.0950000000	s response
0.0950000000	different standard
0.0950000000	into semantic
0.0950000000	first efficient
0.0950000000	as segmentation
0.0950000000	several metrics
0.0950000000	several cases
0.0950000000	several areas
0.0950000000	several standard
0.0950000000	several synthetic
0.0950000000	two specific
0.0950000000	as diverse
0.0950000000	several practical
0.0950000000	several scenarios
0.0950000000	than individual
0.0950000000	several related
0.0950000000	novel views
0.0950000000	several languages
0.0950000000	several factors
0.0950000000	than relying
0.0950000000	three related
0.0950000000	several measures
0.0950000000	as belonging
0.0950000000	into images
0.0950000000	as lasso
0.0950000000	than simply
0.0950000000	two observations
0.0950000000	first prove
0.0950000000	three stage
0.0950000000	as emph
0.0950000000	as functions
0.0950000000	several attempts
0.0950000000	than methods
0.0950000000	as specific
0.0950000000	as planning
0.0950000000	first extract
0.0950000000	as separate
0.0950000000	different shapes
0.0950000000	first class
0.0950000000	as similar
0.0950000000	as finite
0.0950000000	than prior
0.0950000000	two measures
0.0950000000	as instances
0.0950000000	than linear
0.0950000000	than current
0.0950000000	two fully
0.0950000000	as objects
0.0950000000	2 stage
0.0950000000	as vectors
0.0950000000	as sets
0.0950000000	than 1
0.0950000000	novel variant
0.0950000000	as weight
0.0950000000	as predictive
0.0950000000	than 30
0.0950000000	as user
0.0950000000	than regular
0.0950000000	as traditional
0.0950000000	s appearance
0.0950000000	as base
0.0950000000	than recent
0.0950000000	as inference
0.0950000000	as wordnet
0.0950000000	as highly
0.0950000000	as needed
0.0950000000	as providing
0.0950000000	into training
0.0950000000	s approach
0.0950000000	as soft
0.0950000000	two criteria
0.0950000000	two proposed
0.0950000000	than 10
0.0950000000	into segments
0.0950000000	than learning
0.0950000000	as output
0.0950000000	as real
0.0950000000	as multiple
0.0950000000	as document
0.0950000000	as stochastic
0.0950000000	as convolutional
0.0950000000	as standard
0.0950000000	as matching
0.0950000000	as usual
0.0950000000	as language
0.0950000000	as statistical
0.0950000000	as spectral
0.0950000000	as 2d
0.0950000000	as competitive
0.0950000000	as images
0.0950000000	as continuous
0.0950000000	as class
0.0950000000	as question
0.0950000000	as existing
0.0950000000	as recurrent
0.0950000000	as weak
0.0950000000	as character
0.0950000000	as spatial
0.0950000000	as hierarchical
0.0950000000	two objects
0.0950000000	as state
0.0950000000	as observed
0.0950000000	two synthetic
0.0950000000	as adaptive
0.0950000000	as genetic
0.0950000000	as relevant
0.0950000000	as minimizing
0.0950000000	two adversarial
0.0950000000	as pre
0.0950000000	as random
0.0950000000	as additional
0.0950000000	as effective
0.0950000000	as universal
0.0950000000	into high
0.0950000000	as epsilon
0.0950000000	as similarity
0.0950000000	as classifiers
0.0950000000	as alternatives
0.0950000000	as easy
0.0950000000	particular focus
0.0950000000	two languages
0.0950000000	as computational
0.0950000000	as age
0.0950000000	as reference
0.0950000000	two cases
0.0950000000	as probability
0.0950000000	two large
0.0950000000	two common
0.0950000000	as positive
0.0950000000	as source
0.0950000000	as structured
0.0950000000	as potential
0.0950000000	as robotics
0.0950000000	as evidence
0.0950000000	two typical
0.0950000000	as product
0.0950000000	as sampling
0.0950000000	several studies
0.0950000000	as bayesian
0.0950000000	as gaussian
0.0950000000	as markov
0.0950000000	as clustering
0.0950000000	as point
0.0950000000	as em
0.0950000000	as suggested
0.0950000000	as missing
0.0950000000	as binary
0.0950000000	as pose
0.0950000000	as popular
0.0950000000	into sparse
0.0950000000	as resnet
0.0950000000	two discrete
0.0950000000	as sparsity
0.0950000000	as convex
0.0950000000	as single
0.0950000000	as contextual
0.0950000000	as ground
0.0950000000	as humans
0.0950000000	as pattern
0.0950000000	as points
0.0950000000	as finding
0.0950000000	as computing
0.0950000000	into groups
0.0950000000	two sentences
0.0950000000	two samples
0.0950000000	as artificial
0.0950000000	two commonly
0.0950000000	as test
0.0950000000	as automatic
0.0950000000	two previous
0.0950000000	as web
0.0950000000	as early
0.0950000000	two representations
0.0950000000	two streams
0.0950000000	s underlying
0.0950000000	two evaluation
0.0950000000	two crucial
0.0950000000	into simpler
0.0950000000	as sift
0.0950000000	two benchmark
0.0950000000	as intelligent
0.0950000000	two computational
0.0950000000	s features
0.0950000000	as queries
0.0950000000	into question
0.0950000000	two critical
0.0950000000	two corpora
0.0950000000	two ideas
0.0950000000	s query
0.0950000000	as key
0.0950000000	as concept
0.0950000000	two graphs
0.0950000000	several problems
0.0950000000	into meaningful
0.0950000000	two image
0.0950000000	s attention
0.0950000000	s position
0.0950000000	two significant
0.0950000000	two issues
0.0950000000	two natural
0.0950000000	than 5
0.0950000000	as optical
0.0950000000	two statistical
0.0950000000	as outliers
0.0950000000	s algorithm
0.0950000000	several improvements
0.0950000000	two feature
0.0950000000	two general
0.0950000000	two view
0.0950000000	two broad
0.0950000000	into linear
0.0950000000	into independent
0.0950000000	two perspectives
0.0950000000	s application
0.0950000000	two terms
0.0950000000	three techniques
0.0950000000	s input
0.0950000000	two additional
0.0950000000	two reasons
0.0950000000	as scene
0.0950000000	two parallel
0.0950000000	two models
0.0950000000	two learning
0.0950000000	two players
0.0950000000	two architectures
0.0950000000	two techniques
0.0950000000	two language
0.0950000000	two primary
0.0950000000	two basic
0.0950000000	two input
0.0950000000	two points
0.0950000000	two practical
0.0950000000	two solutions
0.0950000000	two years
0.0950000000	two benchmarks
0.0950000000	as autonomous
0.0950000000	two frameworks
0.0950000000	two classical
0.0950000000	two branch
0.0950000000	two factors
0.0950000000	two questions
0.0950000000	two metrics
0.0950000000	two instances
0.0950000000	two kernels
0.0950000000	two views
0.0950000000	two point
0.0950000000	two features
0.0950000000	two systems
0.0950000000	two representative
0.0950000000	two multi
0.0950000000	two pairs
0.0950000000	as constraints
0.0950000000	two pass
0.0950000000	as regression
0.0950000000	several models
0.0950000000	as independent
0.0950000000	as edges
0.0950000000	three domains
0.0950000000	s accuracy
0.0950000000	two constraints
0.0950000000	s training
0.0950000000	s contribution
0.0950000000	two layers
0.0950000000	two strategies
0.0950000000	two matrices
0.0950000000	several ways
0.0950000000	novel dataset
0.0950000000	novel computational
0.0950000000	novel metric
0.0950000000	than comparable
0.0950000000	novel generalization
0.0950000000	than 50
0.0950000000	than humans
0.0950000000	than random
0.0950000000	than single
0.0950000000	than 2
0.0950000000	than training
0.0950000000	than english
0.0950000000	than word
0.0950000000	several benchmarks
0.0950000000	than expected
0.0950000000	than simple
0.0950000000	into sets
0.0950000000	different problems
0.0950000000	several issues
0.0950000000	first model
0.0950000000	three tasks
0.0950000000	several common
0.0950000000	several classical
0.0950000000	into 3d
0.0950000000	different problem
0.0950000000	several simple
0.0950000000	several results
0.0950000000	several levels
0.0950000000	into existing
0.0950000000	into higher
0.0950000000	into regions
0.0950000000	into individual
0.0950000000	several times
0.0950000000	several deep
0.0950000000	several fundamental
0.0950000000	3d images
0.0950000000	3d environment
0.0950000000	3d world
0.0950000000	3d representations
0.0950000000	3d vision
0.0950000000	3d visual
0.0950000000	3d tracking
0.0950000000	3d imaging
0.0950000000	3d segmentation
0.0950000000	quite simple
0.0950000000	on designing
0.0950000000	from datasets
0.0950000000	each approach
0.0950000000	from observations
0.0950000000	on applying
0.0950000000	on approximating
0.0950000000	for 1
0.0950000000	on 9
0.0950000000	on measuring
0.0950000000	many languages
0.0950000000	on conventional
0.0950000000	on minimum
0.0950000000	above problems
0.0950000000	from patient
0.0950000000	each candidate
0.0950000000	for retrieving
0.0950000000	for early
0.0950000000	for pedestrian
0.0950000000	on actual
0.0950000000	on alternating
0.0950000000	on hidden
0.0950000000	for arbitrarily
0.0950000000	on automated
0.0950000000	each method
0.0950000000	before training
0.0950000000	on partial
0.0950000000	on solving
0.0950000000	on textual
0.0950000000	from easy
0.0950000000	on evolutionary
0.0950000000	on extensive
0.0950000000	from pairwise
0.0950000000	on feature
0.0950000000	each single
0.0950000000	each vector
0.0950000000	on strong
0.0950000000	for distinguishing
0.0950000000	on rank
0.0950000000	for normal
0.0950000000	many parameters
0.0950000000	for tree
0.0950000000	for supporting
0.0950000000	for adapting
0.0950000000	on term
0.0950000000	for methods
0.0950000000	on 7
0.0950000000	on combining
0.0950000000	on convolutional
0.0950000000	out data
0.0950000000	for ordinary
0.0950000000	for scalability
0.0950000000	many efficient
0.0950000000	for signals
0.0950000000	for computers
0.0950000000	for detailed
0.0950000000	from healthy
0.0950000000	many times
0.0950000000	for sound
0.0950000000	for longer
0.0950000000	for robots
0.0950000000	for massive
0.0950000000	for compressing
0.0950000000	for partitioning
0.0950000000	for final
0.0950000000	many core
0.0950000000	second set
0.0950000000	for regularizing
0.0950000000	for symbolic
0.0950000000	for inducing
0.0950000000	second problem
0.0950000000	for phrase
0.0950000000	for quickly
0.0950000000	for surgical
0.0950000000	second model
0.0950000000	second phase
0.0950000000	second method
0.0950000000	for preserving
0.0950000000	for concept
0.0950000000	for expert
0.0950000000	second step
0.0950000000	on stanford
0.0950000000	on limited
0.0950000000	for drawing
0.0950000000	same cluster
0.0950000000	from generative
0.0950000000	many research
0.0950000000	for taking
0.0950000000	for safe
0.0950000000	for playing
0.0950000000	for outdoor
0.0950000000	for quadratic
0.0950000000	each prediction
0.0950000000	for defeasible
0.0950000000	for landmark
0.0950000000	for nonmonotonic
0.0950000000	for micro
0.0950000000	for fitting
0.0950000000	each term
0.0950000000	for trees
0.0950000000	for program
0.0950000000	many examples
0.0950000000	for navigation
0.0950000000	for graphs
0.0950000000	for convergence
0.0950000000	many modern
0.0950000000	for logical
0.0950000000	for change
0.0950000000	for alzheimer
0.0950000000	for marketing
0.0950000000	for viewing
0.0950000000	for annotating
0.0950000000	for integration
0.0950000000	many biological
0.0950000000	for risk
0.0950000000	for querying
0.0950000000	second algorithm
0.0950000000	for student
0.0950000000	for material
0.0950000000	second approach
0.0950000000	for treating
0.0950000000	for diabetic
0.0950000000	for emph
0.0950000000	for lossy
0.0950000000	for egocentric
0.0950000000	for precise
0.0950000000	for extractive
0.0950000000	from individual
0.0950000000	from limited
0.0950000000	from samples
0.0950000000	for explicit
0.0950000000	from pixel
0.0950000000	from unseen
0.0950000000	for quantitative
0.0950000000	from implicit
0.0950000000	from past
0.0950000000	from biological
0.0950000000	from neural
0.0950000000	from weak
0.0950000000	from word
0.0950000000	from traditional
0.0950000000	from structured
0.0950000000	on region
0.0950000000	from egocentric
0.0950000000	for clinical
0.0950000000	for visualization
0.0950000000	on linguistic
0.0950000000	on error
0.0950000000	on structured
0.0950000000	for bounded
0.0950000000	on importance
0.0950000000	on correlation
0.0950000000	on robust
0.0950000000	on l1
0.0950000000	on common
0.0950000000	on methods
0.0950000000	on gray
0.0950000000	on potential
0.0950000000	on predictive
0.0950000000	many fewer
0.0950000000	for gene
0.0950000000	for common
0.0950000000	on users
0.0950000000	on hybrid
0.0950000000	for assigning
0.0950000000	from noise
0.0950000000	from stereo
0.0950000000	on raw
0.0950000000	for abstractive
0.0950000000	on financial
0.0950000000	from simulated
0.0950000000	for uncovering
0.0950000000	many valued
0.0950000000	on low
0.0950000000	on 4
0.0950000000	from stochastic
0.0950000000	for rare
0.0950000000	for hindi
0.0950000000	many solutions
0.0950000000	on stochastic
0.0950000000	for complete
0.0950000000	for mitigating
0.0950000000	many statistical
0.0950000000	for deformable
0.0950000000	for partial
0.0950000000	for tweets
0.0950000000	for aggregating
0.0950000000	for 2
0.0950000000	for smooth
0.0950000000	many application
0.0950000000	many settings
0.0950000000	many ai
0.0950000000	many years
0.0950000000	for languages
0.0950000000	for enhanced
0.0950000000	for robotic
0.0950000000	on 3
0.0950000000	for evolving
0.0950000000	for rapid
0.0950000000	for deployment
0.0950000000	for reconstruction
0.0950000000	on internet
0.0950000000	from databases
0.0950000000	for industrial
0.0950000000	for nonparametric
0.0950000000	many successful
0.0950000000	for positive
0.0950000000	on super
0.0950000000	for commercial
0.0950000000	many features
0.0950000000	on developing
0.0950000000	for ct
0.0950000000	for multilingual
0.0950000000	however learning
0.0950000000	however human
0.0950000000	however deep
0.0950000000	for guiding
0.0950000000	however training
0.0950000000	for uncertainty
0.0950000000	from smart
0.0950000000	for audio
0.0950000000	for scaling
0.0950000000	on sparse
0.0950000000	for simplicity
0.0950000000	from finite
0.0950000000	from partially
0.0950000000	for japanese
0.0950000000	from textual
0.0950000000	on external
0.0950000000	many previous
0.0950000000	on convex
0.0950000000	same complexity
0.0950000000	same task
0.0950000000	for consistent
0.0950000000	on resnet
0.0950000000	for disease
0.0950000000	many images
0.0950000000	however accurate
0.0950000000	from overfitting
0.0950000000	many robotic
0.0950000000	same domain
0.0950000000	towards improving
0.0950000000	same model
0.0950000000	on past
0.0950000000	on greedy
0.0950000000	each weight
0.0950000000	many datasets
0.0950000000	however unlike
0.0950000000	from arbitrary
0.0950000000	for faces
0.0950000000	for indoor
0.0950000000	for melanoma
0.0950000000	for crowd
0.0950000000	on modelling
0.0950000000	however finding
0.0950000000	on deep
0.0950000000	from eye
0.0950000000	for reduced
0.0950000000	each stream
0.0950000000	for imaging
0.0950000000	on 13
0.0950000000	on lfw
0.0950000000	from moving
0.0950000000	for negative
0.0950000000	for uncertain
0.0950000000	from streaming
0.0950000000	for modern
0.0950000000	for disjunctive
0.0950000000	for stable
0.0950000000	3 2
0.0950000000	however classical
0.0950000000	on examples
0.0950000000	on 12
0.0950000000	from tweets
0.0950000000	for description
0.0950000000	each classifier
0.0950000000	for pruning
0.0950000000	on state
0.0950000000	each entity
0.0950000000	too low
0.0950000000	for linking
0.0950000000	for german
0.0950000000	however requires
0.0950000000	many models
0.0950000000	for turkish
0.0950000000	for max
0.0950000000	on celeba
0.0950000000	for exploration
0.0950000000	same class
0.0950000000	for total
0.0950000000	for accurately
0.0950000000	each channel
0.0950000000	many local
0.0950000000	for 6d
0.0950000000	many scenarios
0.0950000000	from mri
0.0950000000	for extended
0.0950000000	from compressive
0.0950000000	for students
0.0950000000	for aligning
0.0950000000	for summarizing
0.0950000000	for translating
0.0950000000	for virtual
0.0950000000	for extending
0.0950000000	for running
0.0950000000	for conventional
0.0950000000	for power
0.0950000000	for comprehensive
0.0950000000	for background
0.0950000000	many advantages
0.0950000000	for moving
0.0950000000	for stability
0.0950000000	for cluster
0.0950000000	for computationally
0.0950000000	for multidimensional
0.0950000000	for bounding
0.0950000000	for quick
0.0950000000	for verification
0.0950000000	on features
0.0950000000	for sensing
0.0950000000	for simulation
0.0950000000	for precision
0.0950000000	for sparsity
0.0950000000	for monitoring
0.0950000000	for logistic
0.0950000000	many training
0.0950000000	from visible
0.0950000000	for heterogeneous
0.0950000000	for relative
0.0950000000	for overlapping
0.0950000000	from linear
0.0950000000	for lasso
0.0950000000	for l1
0.0950000000	for independent
0.0950000000	for multitask
0.0950000000	for basic
0.0950000000	many language
0.0950000000	for frame
0.0950000000	for sequences
0.0950000000	from purely
0.0950000000	for musical
0.0950000000	for hybrid
0.0950000000	for agent
0.0950000000	many conventional
0.0950000000	for accelerating
0.0950000000	for ensuring
0.0950000000	for surface
0.0950000000	on assumptions
0.0950000000	for treatment
0.0950000000	for syntactic
0.0950000000	for similar
0.0950000000	for construction
0.0950000000	for merging
0.0950000000	for fusing
0.0950000000	for interpretation
0.0950000000	for categorizing
0.0950000000	however real
0.0950000000	for regular
0.0950000000	on information
0.0950000000	for classifier
0.0950000000	from network
0.0950000000	many complex
0.0950000000	for inter
0.0950000000	for linguistic
0.0950000000	for selection
0.0950000000	for regularized
0.0950000000	for automatically
0.0950000000	on extracting
0.0950000000	on variable
0.0950000000	on discovering
0.0950000000	on exact
0.0950000000	for classifiers
0.0950000000	on context
0.0950000000	on independent
0.0950000000	many samples
0.0950000000	from partial
0.0950000000	on recognizing
0.0950000000	for attention
0.0950000000	on complete
0.0950000000	for multispectral
0.0950000000	for fixed
0.0950000000	for converting
0.0950000000	for introducing
0.0950000000	for personalized
0.0950000000	for public
0.0950000000	for candidate
0.0950000000	for biometric
0.0950000000	for mri
0.0950000000	on movie
0.0950000000	for acceptance
0.0950000000	for expression
0.0950000000	on stable
0.0950000000	for environmental
0.0950000000	from monocular
0.0950000000	for flexible
0.0950000000	on optimizing
0.0950000000	for distance
0.0950000000	on systems
0.0950000000	for problem
0.0950000000	for generic
0.0950000000	from current
0.0950000000	for wide
0.0950000000	on rules
0.0950000000	from relational
0.0950000000	from i.i.d
0.0950000000	for traditional
0.0950000000	for quality
0.0950000000	for hidden
0.0950000000	each concept
0.0950000000	on visual
0.0950000000	from demonstrations
0.0950000000	for cooperative
0.0950000000	for counting
0.0950000000	for indexing
0.0950000000	on constrained
0.0950000000	on combinatorial
0.0950000000	for functional
0.0950000000	for restricted
0.0950000000	on segmentation
0.0950000000	many diverse
0.0950000000	for synaptic
0.0950000000	for situations
0.0950000000	on ucf101
0.0950000000	for randomized
0.0950000000	for sat
0.0950000000	on ground
0.0950000000	for memory
0.0950000000	on 5
0.0950000000	towards learning
0.0950000000	many situations
0.0950000000	for localizing
0.0950000000	on structure
0.0950000000	on discriminative
0.0950000000	for local
0.0950000000	many hidden
0.0950000000	for accelerated
0.0950000000	on synthetically
0.0950000000	on heuristics
0.0950000000	on clustering
0.0950000000	on statistics
0.0950000000	many factors
0.0950000000	on stereo
0.0950000000	on handwritten
0.0950000000	on videos
0.0950000000	for infinite
0.0950000000	on tracking
0.0950000000	for sampling
0.0950000000	on cognitive
0.0950000000	on properties
0.0950000000	for declarative
0.0950000000	for land
0.0950000000	on deterministic
0.0950000000	for dynamical
0.0950000000	on prediction
0.0950000000	on modern
0.0950000000	for attribute
0.0950000000	many variables
0.0950000000	on urban
0.0950000000	for predictive
0.0950000000	for providing
0.0950000000	for faster
0.0950000000	for greater
0.0950000000	on source
0.0950000000	on concepts
0.0950000000	for balancing
0.0950000000	for composite
0.0950000000	on ucf
0.0950000000	on realistic
0.0950000000	from related
0.0950000000	for approximately
0.0950000000	on compressive
0.0950000000	from domain
0.0950000000	on graphical
0.0950000000	for initial
0.0950000000	on modeling
0.0950000000	for optimization
0.0950000000	for vehicle
0.0950000000	for models
0.0950000000	on increasing
0.0950000000	on screen
0.0950000000	for potentially
0.0950000000	on similarity
0.0950000000	on geometric
0.0950000000	on iterative
0.0950000000	many layers
0.0950000000	for deeper
0.0950000000	however previous
0.0950000000	on device
0.0950000000	on expected
0.0950000000	from combinatorial
0.0950000000	on learned
0.0950000000	for missing
0.0950000000	on edge
0.0950000000	on variational
0.0950000000	on matrix
0.0950000000	on video
0.0950000000	from sequence
0.0950000000	however conventional
0.0950000000	many recent
0.0950000000	for realizing
0.0950000000	on selected
0.0950000000	on specific
0.0950000000	on weighted
0.0950000000	for partially
0.0950000000	on fuzzy
0.0950000000	for checking
0.0950000000	on extending
0.0950000000	on expensive
0.0950000000	on 6
0.0950000000	for varying
0.0950000000	on representing
0.0950000000	on hard
0.0950000000	on small
0.0950000000	for exploratory
0.0950000000	for weight
0.0950000000	for documents
0.0950000000	on generalization
0.0950000000	on caltech
0.0950000000	on improving
0.0950000000	on current
0.0950000000	on development
0.0950000000	on noisy
0.0950000000	for scenarios
0.0950000000	on cross
0.0950000000	on unseen
0.0950000000	from 10
0.0950000000	on exploiting
0.0950000000	on highly
0.0950000000	for qualitative
0.0950000000	for automating
0.0950000000	on sample
0.0950000000	on generic
0.0950000000	on entropy
0.0950000000	many works
0.0950000000	on difficult
0.0950000000	for asynchronous
0.0950000000	from parallel
0.0950000000	on key
0.0950000000	for retinal
0.0950000000	on computing
0.0950000000	on historical
0.0950000000	on fully
0.0950000000	many artificial
0.0950000000	on decomposition
0.0950000000	for direct
0.0950000000	for synthetic
0.0950000000	each update
0.0950000000	for manual
0.0950000000	for structural
0.0950000000	on unsupervised
0.0950000000	from skeleton
0.0950000000	for controlled
0.0950000000	for appearance
0.0950000000	for constrained
0.0950000000	on gibbs
0.0950000000	on gradient
0.0950000000	on ct
0.0950000000	on automatic
0.0950000000	on reducing
0.0950000000	on text
0.0950000000	too high
0.0950000000	for robustness
0.0950000000	for related
0.0950000000	on empirical
0.0950000000	same features
0.0950000000	from long
0.0950000000	from unknown
0.0950000000	on evaluation
0.0950000000	for piecewise
0.0950000000	for bengali
0.0950000000	on relevant
0.0950000000	on constraint
0.0950000000	for acoustic
0.0950000000	on sequences
0.0950000000	for explaining
0.0950000000	many instances
0.0950000000	on training
0.0950000000	for compression
0.0950000000	each decision
0.0950000000	on individual
0.0950000000	on dense
0.0950000000	on model
0.0950000000	from simulation
0.0950000000	on vector
0.0950000000	for experimental
0.0950000000	many information
0.0950000000	on observed
0.0950000000	for variational
0.0950000000	on joint
0.0950000000	for soft
0.0950000000	on higher
0.0950000000	on traditional
0.0950000000	for spoken
0.0950000000	for proper
0.0950000000	on heterogeneous
0.0950000000	on 20
0.0950000000	for 6
0.0950000000	on spectral
0.0950000000	on fisher
0.0950000000	on abstract
0.0950000000	on heuristic
0.0950000000	from state
0.0950000000	from formal
0.0950000000	on input
0.0950000000	on toy
0.0950000000	on log
0.0950000000	on incremental
0.0950000000	on long
0.0950000000	however recent
0.0950000000	on ms
0.0950000000	for monocular
0.0950000000	for validating
0.0950000000	for geometric
0.0950000000	on 10
0.0950000000	for signal
0.0950000000	on simple
0.0950000000	on recognition
0.0950000000	on benchmarks
0.0950000000	for answering
0.0950000000	on dynamic
0.0950000000	on fixed
0.0950000000	for proving
0.0950000000	for universal
0.0950000000	on 3d
0.0950000000	on generative
0.0950000000	for practitioners
0.0950000000	on site
0.0950000000	on gene
0.0950000000	on news
0.0950000000	however traditional
0.0950000000	on parallel
0.0950000000	from multi
0.0950000000	on fpga
0.0950000000	on logic
0.0950000000	from online
0.0950000000	on document
0.0950000000	for forward
0.0950000000	on recurrent
0.0950000000	for difficult
0.0950000000	on clinical
0.0950000000	from linguistic
0.0950000000	on bag
0.0950000000	on group
0.0950000000	for aerial
0.0950000000	for exact
0.0950000000	on artificial
0.0950000000	on numerical
0.0950000000	for contextual
0.0950000000	for standard
0.0950000000	on experimental
0.0950000000	on making
0.0950000000	on adaptive
0.0950000000	for ner
0.0950000000	on extraction
0.0950000000	for resolving
0.0950000000	many standard
0.0950000000	for distant
0.0950000000	for avoiding
0.0950000000	on manually
0.0950000000	on parameters
0.0950000000	on structural
0.0950000000	for urban
0.0950000000	on concept
0.0950000000	on convergence
0.0950000000	on accurate
0.0950000000	on machine
0.0950000000	for transferring
0.0950000000	on linear
0.0950000000	for denoising
0.0950000000	for conducting
0.0950000000	on classical
0.0950000000	on nist
0.0950000000	on important
0.0950000000	for embedding
0.0950000000	on understanding
0.0950000000	for communication
0.0950000000	on local
0.0950000000	for realistic
0.0950000000	on selection
0.0950000000	for weighted
0.0950000000	for uniform
0.0950000000	on moving
0.0950000000	on medical
0.0950000000	on prior
0.0950000000	from texts
0.0950000000	on sampling
0.0950000000	many techniques
0.0950000000	on larger
0.0950000000	on user
0.0950000000	on relation
0.0950000000	from synthetic
0.0950000000	on established
0.0950000000	on 2
0.0950000000	on body
0.0950000000	on universal
0.0950000000	on simulations
0.0950000000	on performance
0.0950000000	for augmenting
0.0950000000	for grounded
0.0950000000	many sequence
0.0950000000	on arbitrary
0.0950000000	on existing
0.0950000000	on classifying
0.0950000000	on approximate
0.0950000000	for maximizing
0.0950000000	on analyzing
0.0950000000	on regression
0.0950000000	on general
0.0950000000	on syntactic
0.0950000000	for visualizing
0.0950000000	for filtering
0.0950000000	on short
0.0950000000	from recent
0.0950000000	on amazon
0.0950000000	on svhn
0.0950000000	on automatically
0.0950000000	on kernel
0.0950000000	for deploying
0.0950000000	for exploring
0.0950000000	on randomly
0.0950000000	on belief
0.0950000000	many related
0.0950000000	for removing
0.0950000000	from weakly
0.0950000000	on tree
0.0950000000	for unseen
0.0950000000	from heterogeneous
0.0950000000	on parameter
0.0950000000	from wordnet
0.0950000000	for cross
0.0950000000	for cases
0.0950000000	on additional
0.0950000000	for effectively
0.0950000000	for advanced
0.0950000000	on inference
0.0950000000	on predicting
0.0950000000	for numerous
0.0950000000	on optimal
0.0950000000	on algorithms
0.0950000000	many challenging
0.0950000000	on capturing
0.0950000000	on clean
0.0950000000	for location
0.0950000000	on batch
0.0950000000	many systems
0.0950000000	on singular
0.0950000000	for validation
0.0950000000	for adding
0.0950000000	on trees
0.0950000000	for robotics
0.0950000000	on augmented
0.0950000000	for iterative
0.0950000000	on global
0.0950000000	for nlp
0.0950000000	for fault
0.0950000000	on tasks
0.0950000000	on theoretical
0.0950000000	on efficient
0.0950000000	on mapreduce
0.0950000000	on practical
0.0950000000	on continuous
0.0950000000	each source
0.0950000000	on matching
0.0950000000	for exponential
0.0950000000	for increased
0.0950000000	on wikipedia
0.0950000000	from gaussian
0.0950000000	from complete
0.0950000000	on cnns
0.0950000000	on detailed
0.0950000000	for actions
0.0950000000	on early
0.0950000000	on groups
0.0950000000	on evaluating
0.0950000000	however designing
0.0950000000	for classical
0.0950000000	for russian
0.0950000000	each location
0.0950000000	on experiments
0.0950000000	on road
0.0950000000	on ontologies
0.0950000000	from simulations
0.0950000000	on building
0.0950000000	from complex
0.0950000000	on numerous
0.0950000000	for subsequent
0.0950000000	for query
0.0950000000	on memory
0.0950000000	on mixed
0.0950000000	for special
0.0950000000	for probability
0.0950000000	on spatial
0.0950000000	for long
0.0950000000	for computation
0.0950000000	on energy
0.0950000000	for skin
0.0950000000	on identifying
0.0950000000	on active
0.0950000000	on markov
0.0950000000	for tumor
0.0950000000	on maximizing
0.0950000000	for unconstrained
0.0950000000	on validation
0.0950000000	from existing
0.0950000000	on cpu
0.0950000000	for symmetric
0.0950000000	for undirected
0.0950000000	for instances
0.0950000000	for boosting
0.0950000000	for traffic
0.0950000000	on mathbb
0.0950000000	for super
0.0950000000	from internet
0.0950000000	however applying
0.0950000000	for investigating
0.0950000000	on generating
0.0950000000	for analysing
0.0950000000	for offline
0.0950000000	for finite
0.0950000000	on minimizing
0.0950000000	for decentralized
0.0950000000	however standard
0.0950000000	for batch
0.0950000000	for variable
0.0950000000	for establishing
0.0950000000	on digital
0.0950000000	for scenes
0.0950000000	for crafting
0.0950000000	for acquiring
0.0950000000	for hard
0.0950000000	on synthesized
0.0950000000	for healthcare
0.0950000000	for manifold
0.0950000000	on fast
0.0950000000	for surveillance
0.0950000000	from simple
0.0950000000	for recommendation
0.0950000000	for transforming
0.0950000000	each network
0.0950000000	for labels
0.0950000000	for gaze
0.0950000000	for benchmarking
0.0950000000	from slow
0.0950000000	for sentences
0.0950000000	for strong
0.0950000000	for correlation
0.0950000000	for authorship
0.0950000000	many efforts
0.0950000000	for intelligent
0.0950000000	from random
0.0950000000	for recurrent
0.0950000000	for health
0.0950000000	for regularization
0.0950000000	towards efficient
0.0950000000	however require
0.0950000000	many current
0.0950000000	for ranking
0.0950000000	from digital
0.0950000000	for generalized
0.0950000000	for compositional
0.0950000000	for tasks
0.0950000000	on probabilistic
0.0950000000	on distributional
0.0950000000	on datasets
0.0950000000	for crowdsourcing
0.0950000000	for propagating
0.0950000000	from massive
0.0950000000	on online
0.0950000000	from corpora
0.0950000000	from multimodal
0.0950000000	on expert
0.0950000000	for numerical
0.0950000000	for diagnostic
0.0950000000	from poor
0.0950000000	for adjusting
0.0950000000	for additional
0.0950000000	for sample
0.0950000000	for medium
0.0950000000	for mapping
0.0950000000	from free
0.0950000000	for specific
0.0950000000	for biomedical
0.0950000000	from hand
0.0950000000	for simultaneously
0.0950000000	for gans
0.0950000000	from convolutional
0.0950000000	for completing
0.0950000000	on kitti
0.0950000000	for imagenet
0.0950000000	for extremely
0.0950000000	for collecting
0.0950000000	for log
0.0950000000	for marginal
0.0950000000	for applications
0.0950000000	each patch
0.0950000000	for challenging
0.0950000000	from experiments
0.0950000000	for popular
0.0950000000	for cifar
0.0950000000	for physical
0.0950000000	on imbalanced
0.0950000000	for applying
0.0950000000	on 1
0.0950000000	for scheduling
0.0950000000	for resource
0.0950000000	from continuous
0.0950000000	on genetic
0.0950000000	for discrimination
0.0950000000	on multivariate
0.0950000000	for humans
0.0950000000	each patient
0.0950000000	for pairs
0.0950000000	for dual
0.0950000000	for reading
0.0950000000	for open
0.0950000000	for discourse
0.0950000000	for embedded
0.0950000000	for mnist
0.0950000000	for maximum
0.0950000000	for generalization
0.0950000000	for development
0.0950000000	for making
0.0950000000	for 2d
0.0950000000	for systematic
0.0950000000	for tuning
0.0950000000	for content
0.0950000000	for machines
0.0950000000	many vision
0.0950000000	for gender
0.0950000000	from hundreds
0.0950000000	for evidence
0.0950000000	for region
0.0950000000	for cnns
0.0950000000	for directed
0.0950000000	for deterministic
0.0950000000	for fair
0.0950000000	for input
0.0950000000	towards building
0.0950000000	for noise
0.0950000000	for existing
0.0950000000	for digital
0.0950000000	for increasing
0.0950000000	for extraction
0.0950000000	for web
0.0950000000	for experiments
0.0950000000	on future
0.0950000000	for typical
0.0950000000	for discriminative
0.0950000000	for community
0.0950000000	for locating
0.0950000000	for integrating
0.0950000000	for leveraging
0.0950000000	on previous
0.0950000000	for enabling
0.0950000000	for adaptive
0.0950000000	for mixed
0.0950000000	for successful
0.0950000000	for larger
0.0950000000	many learning
0.0950000000	for distribution
0.0950000000	for discriminating
0.0950000000	for implementation
0.0950000000	for auto
0.0950000000	for multivariate
0.0950000000	for random
0.0950000000	for highly
0.0950000000	for directly
0.0950000000	for simulating
0.0950000000	for interpretable
0.0950000000	for setting
0.0950000000	for speed
0.0950000000	for videos
0.0950000000	for download
0.0950000000	on conditional
0.0950000000	for state
0.0950000000	for expensive
0.0950000000	for class
0.0950000000	for active
0.0950000000	for hyperparameter
0.0950000000	for reliable
0.0950000000	for mass
0.0950000000	from cnns
0.0950000000	for labeling
0.0950000000	for 4
0.0950000000	for diverse
0.0950000000	for visually
0.0950000000	for words
0.0950000000	for interpreting
0.0950000000	for entities
0.0950000000	for annotation
0.0950000000	each tree
0.0950000000	for road
0.0950000000	for tagging
0.0950000000	for imbalanced
0.0950000000	for error
0.0950000000	for pairwise
0.0950000000	for test
0.0950000000	for easy
0.0950000000	for post
0.0950000000	for smart
0.0950000000	for enforcing
0.0950000000	for interacting
0.0950000000	for scientific
0.0950000000	for em
0.0950000000	for maintaining
0.0950000000	for nonnegative
0.0950000000	for algorithms
0.0950000000	for efficiency
0.0950000000	for static
0.0950000000	for performance
0.0950000000	for boundary
0.0950000000	each problem
0.0950000000	for previously
0.0950000000	for alignment
0.0950000000	for 3
0.0950000000	on discrete
0.0950000000	for assisting
0.0950000000	on distance
0.0950000000	for vector
0.0950000000	for blind
0.0950000000	for storage
0.0950000000	for reaching
0.0950000000	for loss
0.0950000000	for twitter
0.0950000000	for grouping
0.0950000000	from medical
0.0950000000	from statistical
0.0950000000	for unknown
0.0950000000	from earlier
0.0950000000	from 0
0.0950000000	from information
0.0950000000	from static
0.0950000000	from documents
0.0950000000	from external
0.0950000000	from supervised
0.0950000000	from electronic
0.0950000000	from prior
0.0950000000	from audio
0.0950000000	from 1
0.0950000000	from previously
0.0950000000	from background
0.0950000000	from temporal
0.0950000000	from 2
0.0950000000	from historical
0.0950000000	from remote
0.0950000000	from small
0.0950000000	from binary
0.0950000000	from conventional
0.0950000000	from probabilistic
0.0950000000	from optimal
0.0950000000	from higher
0.0950000000	from researchers
0.0950000000	from similar
0.0950000000	from pre
0.0950000000	from public
0.0950000000	from imagenet
0.0950000000	from modeling
0.0950000000	from mobile
0.0950000000	from 3
0.0950000000	from humans
0.0950000000	from computational
0.0950000000	from google
0.0950000000	from regular
0.0950000000	from scientific
0.0950000000	from original
0.0950000000	from object
0.0950000000	from https
0.0950000000	from english
0.0950000000	from users
0.0950000000	from sparse
0.0950000000	from neighboring
0.0950000000	from diverse
0.0950000000	from experts
0.0950000000	from labeled
0.0950000000	from standard
0.0950000000	from short
0.0950000000	from structural
0.0950000000	from artificial
0.0950000000	from expert
0.0950000000	from examples
0.0950000000	from discrete
0.0950000000	3 layer
0.0950000000	for searching
0.0950000000	from graph
0.0950000000	from local
0.0950000000	towards solving
0.0950000000	on nvidia
0.0950000000	from statistics
0.0950000000	from model
0.0950000000	from experimental
0.0950000000	from highly
0.0950000000	from theoretical
0.0950000000	from dynamic
0.0950000000	from lower
0.0950000000	from ground
0.0950000000	from patients
0.0950000000	from color
0.0950000000	from probability
0.0950000000	from adversarial
0.0950000000	from corrupted
0.0950000000	from problems
0.0950000000	from knowledge
0.0950000000	from input
0.0950000000	from classical
0.0950000000	from point
0.0950000000	from independent
0.0950000000	from sequences
0.0950000000	from unconstrained
0.0950000000	on previously
0.0950000000	for fully
0.0950000000	on generalized
0.0950000000	for smaller
0.0950000000	from causal
0.0950000000	from population
0.0950000000	on morphological
0.0950000000	from sensors
0.0950000000	on applications
0.0950000000	on scale
0.0950000000	from comparable
0.0950000000	from literature
0.0950000000	from 50
0.0950000000	towards automatic
0.0950000000	on finite
0.0950000000	on nonlinear
0.0950000000	from open
0.0950000000	on character
0.0950000000	each rule
0.0950000000	towards fully
0.0950000000	on domain
0.0950000000	for lifelong
0.0950000000	on publicly
0.0950000000	for adaptation
0.0950000000	for prior
0.0950000000	towards automated
0.0950000000	for lower
0.0950000000	on evolving
0.0950000000	for domains
0.0950000000	for relevant
0.0950000000	from youtube
0.0950000000	from http
0.0950000000	on mathematical
0.0950000000	on skin
0.0950000000	for systems
0.0950000000	on recent
0.0950000000	for recovery
0.0950000000	for engineering
0.0950000000	for financial
0.0950000000	from demonstration
0.0950000000	on gaussian
0.0950000000	for volumetric
0.0950000000	on hand
0.0950000000	from camera
0.0950000000	on rgb
0.0950000000	each test
0.0950000000	on explicit
0.0950000000	on smaller
0.0950000000	on handcrafted
0.0950000000	six datasets
0.0950000000	on constructing
0.0950000000	on probability
0.0950000000	each position
0.0950000000	each dataset
0.0950000000	for gray
0.0950000000	each unit
0.0950000000	each machine
0.0950000000	each parameter
0.0950000000	each module
0.0950000000	on estimating
0.0950000000	each algorithm
0.0950000000	for improvement
0.0950000000	for character
0.0950000000	for population
0.0950000000	on massive
0.0950000000	each generation
0.0950000000	each specific
0.0950000000	for social
0.0950000000	from sample
0.0950000000	for separating
0.0950000000	on detecting
0.0950000000	for combinatorial
0.0950000000	for potential
0.0950000000	out test
0.0950000000	for textual
0.0950000000	for cognitive
0.0950000000	on google
0.0950000000	for node
0.0950000000	for carrying
0.0950000000	same goal
0.0950000000	for sentence
0.0950000000	for limited
0.0950000000	for solutions
0.0950000000	for tractable
0.0950000000	for patch
0.0950000000	many questions
0.0950000000	for free
0.0950000000	for cell
0.0950000000	many common
0.0950000000	for streaming
0.0950000000	same dataset
0.0950000000	same order
0.0950000000	same architecture
0.0950000000	for extreme
0.0950000000	same type
0.0950000000	same size
0.0950000000	out perform
0.0950000000	from functional
0.0950000000	for advancing
0.0950000000	for simple
0.0950000000	following properties
0.0950000000	on pairwise
0.0950000000	on creating
0.0950000000	on 8
0.0950000000	from applying
0.0950000000	from research
0.0950000000	on cnn
0.0950000000	on estimation
0.0950000000	on shape
0.0950000000	on optical
0.0950000000	on statistical
0.0950000000	on decision
0.0950000000	on cifar10
0.0950000000	on implicit
0.0950000000	on diverse
0.0950000000	on complex
0.0950000000	on lexical
0.0950000000	on end
0.0950000000	on finding
0.0950000000	on manual
0.0950000000	on research
0.0950000000	on instances
0.0950000000	for theoretical
0.0950000000	on surface
0.0950000000	on algorithmic
0.0950000000	on partially
0.0950000000	for overcoming
0.0950000000	on confidence
0.0950000000	on embedded
0.0950000000	for ground
0.0950000000	on 2d
0.0950000000	2d convolutional
0.0950000000	2d object
0.0950000000	serious problem
0.0950000000	the personal
0.0950000000	provides evidence
0.0950000000	the representational
0.0950000000	most recently
0.0950000000	the triangle
0.0950000000	some classes
0.0950000000	some constraints
0.0950000000	the considerable
0.0950000000	some practical
0.0950000000	some parameters
0.0950000000	the emission
0.0950000000	the kernelized
0.0950000000	the prevalent
0.0950000000	the sought
0.0950000000	the articulated
0.0950000000	the standardized
0.0950000000	the duality
0.0950000000	the approximating
0.0950000000	the ilsvrc
0.0950000000	the emergent
0.0950000000	the approximated
0.0950000000	most active
0.0950000000	provides accurate
0.0950000000	the transitivity
0.0950000000	the bellman
0.0950000000	provides theoretical
0.0950000000	the randomness
0.0950000000	the creative
0.0950000000	the modality
0.0950000000	the wrong
0.0950000000	upon recent
0.0950000000	most effective
0.0950000000	the expensive
0.0950000000	the oxford
0.0950000000	the bleu
0.0950000000	not share
0.0950000000	the consumption
0.0950000000	the evolving
0.0950000000	the intensive
0.0950000000	most traditional
0.0950000000	provides high
0.0950000000	the univariate
0.0950000000	provides fast
0.0950000000	the reviewed
0.0950000000	the architectural
0.0950000000	the compactness
0.0950000000	the observational
0.0950000000	the practically
0.0950000000	the python
0.0950000000	the city
0.0950000000	the vgg
0.0950000000	the changing
0.0950000000	the setup
0.0950000000	the pretrained
0.0950000000	the faster
0.0950000000	some popular
0.0950000000	most significant
0.0950000000	the linearized
0.0950000000	the casia
0.0950000000	the finding
0.0950000000	certain tasks
0.0950000000	the greater
0.0950000000	the situations
0.0950000000	some criteria
0.0950000000	most datasets
0.0950000000	some features
0.0950000000	the rationality
0.0950000000	the proofs
0.0950000000	the pruned
0.0950000000	the mr
0.0950000000	the divide
0.0950000000	the predefined
0.0950000000	some standard
0.0950000000	upon previous
0.0950000000	upon existing
0.0950000000	the reliable
0.0950000000	the efforts
0.0950000000	the irrelevant
0.0950000000	the mid
0.0950000000	the keyword
0.0950000000	the methodologies
0.0950000000	the wmt
0.0950000000	the celeba
0.0950000000	the varying
0.0950000000	the dqn
0.0950000000	the consequence
0.0950000000	the restricted
0.0950000000	the acceptance
0.0950000000	not represent
0.0950000000	the mouth
0.0950000000	the insight
0.0950000000	the iterates
0.0950000000	not match
0.0950000000	near human
0.0950000000	not relevant
0.0950000000	most models
0.0950000000	some probability
0.0950000000	most deep
0.0950000000	most studies
0.0950000000	most standard
0.0950000000	consider learning
0.0950000000	the 6d
0.0950000000	certain level
0.0950000000	some underlying
0.0950000000	certain natural
0.0950000000	certain object
0.0950000000	certain problems
0.0950000000	some insights
0.0950000000	certain cases
0.0950000000	certain conditions
0.0950000000	the typically
0.0950000000	the theme
0.0950000000	not efficient
0.0950000000	not follow
0.0950000000	the lost
0.0950000000	the analytic
0.0950000000	some techniques
0.0950000000	the water
0.0950000000	the license
0.0950000000	the degraded
0.0950000000	the letters
0.0950000000	the adapted
0.0950000000	the feret
0.0950000000	not effective
0.0950000000	the scales
0.0950000000	not model
0.0950000000	some additional
0.0950000000	some unknown
0.0950000000	not provide
0.0950000000	most similar
0.0950000000	the moments
0.0950000000	some data
0.0950000000	the strict
0.0950000000	provides strong
0.0950000000	the potentially
0.0950000000	the analog
0.0950000000	the theories
0.0950000000	the stages
0.0950000000	the monocular
0.0950000000	the string
0.0950000000	the operational
0.0950000000	the procedures
0.0950000000	the formulas
0.0950000000	the calculated
0.0950000000	the night
0.0950000000	the manually
0.0950000000	the established
0.0950000000	the period
0.0950000000	the expectations
0.0950000000	the modularity
0.0950000000	the robotics
0.0950000000	not include
0.0950000000	the readers
0.0950000000	the route
0.0950000000	the equation
0.0950000000	not rely
0.0950000000	the normative
0.0950000000	the participation
0.0950000000	the 2011
0.0950000000	already existing
0.0950000000	the environmental
0.0950000000	the phases
0.0950000000	the grammatical
0.0950000000	the facts
0.0950000000	the variances
0.0950000000	the restriction
0.0950000000	the dice
0.0950000000	the cropped
0.0950000000	most machine
0.0950000000	some information
0.0950000000	most advanced
0.0950000000	the hog
0.0950000000	the anisotropic
0.0950000000	the exchange
0.0950000000	the instantaneous
0.0950000000	not exhibit
0.0950000000	the semantically
0.0950000000	the rectified
0.0950000000	the stronger
0.0950000000	the homogeneous
0.0950000000	the generalisation
0.0950000000	the monitoring
0.0950000000	the prominent
0.0950000000	the regularities
0.0950000000	the laws
0.0950000000	the vertex
0.0950000000	the closure
0.0950000000	the american
0.0950000000	the scaled
0.0950000000	the mathematics
0.0950000000	the transcription
0.0950000000	the cutting
0.0950000000	the weakness
0.0950000000	the created
0.0950000000	the bregman
0.0950000000	the plug
0.0950000000	the auto
0.0950000000	the weaker
0.0950000000	the limiting
0.0950000000	the incomplete
0.0950000000	the harmonic
0.0950000000	the hilbert
0.0950000000	the localized
0.0950000000	the commercial
0.0950000000	not contribute
0.0950000000	the gaps
0.0950000000	the combinations
0.0950000000	not simply
0.0950000000	the collaboration
0.0950000000	the emphasis
0.0950000000	the transient
0.0950000000	the sliding
0.0950000000	the exhaustive
0.0950000000	the industry
0.0950000000	the analogy
0.0950000000	the expanded
0.0950000000	the accuracies
0.0950000000	the mechanical
0.0950000000	the ambiguous
0.0950000000	the follow
0.0950000000	the historical
0.0950000000	the subproblems
0.0950000000	the unary
0.0950000000	the implementations
0.0950000000	the flat
0.0950000000	the researchers
0.0950000000	the indian
0.0950000000	the reality
0.0950000000	the writing
0.0950000000	the received
0.0950000000	the integrated
0.0950000000	the compositionality
0.0950000000	the lagrange
0.0950000000	the throughput
0.0950000000	the velocity
0.0950000000	most informative
0.0950000000	the aggregate
0.0950000000	the conflicting
0.0950000000	the purely
0.0950000000	the board
0.0950000000	the heavy
0.0950000000	the flexible
0.0950000000	the lessons
0.0950000000	the separate
0.0950000000	not optimal
0.0950000000	the feasible
0.0950000000	the expertise
0.0950000000	the classifications
0.0950000000	the adverse
0.0950000000	the sigmoid
0.0950000000	the designer
0.0950000000	the reproducing
0.0950000000	the tight
0.0950000000	the filtered
0.0950000000	the comprehensive
0.0950000000	the anatomy
0.0950000000	the locally
0.0950000000	the 2nd
0.0950000000	the inherently
0.0950000000	the outstanding
0.0950000000	the yahoo
0.0950000000	the specialized
0.0950000000	some assumptions
0.0950000000	the siamese
0.0950000000	provides improved
0.0950000000	the densely
0.0950000000	the anatomical
0.0950000000	the regional
0.0950000000	the unconstrained
0.0950000000	the uncertainties
0.0950000000	the kaggle
0.0950000000	the comparable
0.0950000000	the comparisons
0.0950000000	the transmitted
0.0950000000	the supplementary
0.0950000000	the successes
0.0950000000	the sharp
0.0950000000	the accumulated
0.0950000000	the gaze
0.0950000000	the mit
0.0950000000	the i.i.d
0.0950000000	the transferred
0.0950000000	the external
0.0950000000	the submodularity
0.0950000000	the numerous
0.0950000000	the suitable
0.0950000000	the distinguishing
0.0950000000	the employed
0.0950000000	the exponentially
0.0950000000	the workload
0.0950000000	the directed
0.0950000000	the conclusions
0.0950000000	the coupling
0.0950000000	the processed
0.0950000000	the unobserved
0.0950000000	the perplexity
0.0950000000	the debate
0.0950000000	the macro
0.0950000000	most powerful
0.0950000000	the sensitive
0.0950000000	the ordinary
0.0950000000	the asymmetry
0.0950000000	the sufficient
0.0950000000	the needed
0.0950000000	the achievable
0.0950000000	the centralized
0.0950000000	the involved
0.0950000000	the works
0.0950000000	the cpu
0.0950000000	the applied
0.0950000000	the wordnet
0.0950000000	the continuity
0.0950000000	the studied
0.0950000000	the investigated
0.0950000000	the potentials
0.0950000000	the contemporary
0.0950000000	the straightforward
0.0950000000	the bidirectional
0.0950000000	the 2010
0.0950000000	the intractable
0.0950000000	the designed
0.0950000000	the impacts
0.0950000000	the tested
0.0950000000	the portion
0.0950000000	the sensory
0.0950000000	not received
0.0950000000	most research
0.0950000000	the guarantees
0.0950000000	the emotions
0.0950000000	not guarantee
0.0950000000	not reflect
0.0950000000	the demonstration
0.0950000000	not true
0.0950000000	not considered
0.0950000000	the discussed
0.0950000000	not suffer
0.0950000000	the hope
0.0950000000	the discussions
0.0950000000	the advanced
0.0950000000	the cortex
0.0950000000	the piecewise
0.0950000000	the counts
0.0950000000	the ubiquitous
0.0950000000	the downstream
0.0950000000	the visually
0.0950000000	not needed
0.0950000000	the analyses
0.0950000000	not exploit
0.0950000000	the accelerated
0.0950000000	the attractive
0.0950000000	not capture
0.0950000000	not apply
0.0950000000	not learn
0.0950000000	the psychological
0.0950000000	the defined
0.0950000000	the inferential
0.0950000000	the sparseness
0.0950000000	the substantial
0.0950000000	not designed
0.0950000000	the molecular
0.0950000000	the competing
0.0950000000	the dominance
0.0950000000	the tensorflow
0.0950000000	provides information
0.0950000000	the recall
0.0950000000	the assistance
0.0950000000	the persistence
0.0950000000	the electronic
0.0950000000	some objects
0.0950000000	not requiring
0.0950000000	not significantly
0.0950000000	not fit
0.0950000000	the deconvolution
0.0950000000	not achieve
0.0950000000	not scalable
0.0950000000	not solve
0.0950000000	the science
0.0950000000	the seemingly
0.0950000000	the proposition
0.0950000000	some initial
0.0950000000	the theoretically
0.0950000000	the indicator
0.0950000000	the evaluated
0.0950000000	the native
0.0950000000	not consistent
0.0950000000	the multimedia
0.0950000000	the economic
0.0950000000	the connectionist
0.0950000000	the poor
0.0950000000	the universality
0.0950000000	the annotator
0.0950000000	the increasingly
0.0950000000	the caltech
0.0950000000	most interesting
0.0950000000	the quasi
0.0950000000	the hopfield
0.0950000000	the column
0.0950000000	not aware
0.0950000000	not generalize
0.0950000000	the intelligent
0.0950000000	most learning
0.0950000000	the nist
0.0950000000	not provided
0.0950000000	the interactive
0.0950000000	the electrical
0.0950000000	the valuable
0.0950000000	the intuitions
0.0950000000	the society
0.0950000000	the interested
0.0950000000	most robust
0.0950000000	some fixed
0.0950000000	the inverted
0.0950000000	the rationale
0.0950000000	not involve
0.0950000000	the damage
0.0950000000	not trivial
0.0950000000	the prime
0.0950000000	not readily
0.0950000000	the synchronous
0.0950000000	most successful
0.0950000000	the payoffs
0.0950000000	the stacked
0.0950000000	the icdar
0.0950000000	the neighbors
0.0950000000	the composite
0.0950000000	the produced
0.0950000000	the scan
0.0950000000	the analogous
0.0950000000	the trends
0.0950000000	the achieved
0.0950000000	not utilize
0.0950000000	the cifar10
0.0950000000	not exist
0.0950000000	most crucial
0.0950000000	the drift
0.0950000000	the shallow
0.0950000000	the searching
0.0950000000	some computational
0.0950000000	the recovered
0.0950000000	the arbitrary
0.0950000000	the mainstream
0.0950000000	the submitted
0.0950000000	the developments
0.0950000000	most accurate
0.0950000000	most frequently
0.0950000000	the life
0.0950000000	the indexing
0.0950000000	the hamiltonian
0.0950000000	the simpler
0.0950000000	the stored
0.0950000000	the impressive
0.0950000000	the daily
0.0950000000	some parts
0.0950000000	not incorporate
0.0950000000	not completely
0.0950000000	the influences
0.0950000000	not change
0.0950000000	most methods
0.0950000000	the constant
0.0950000000	the crucial
0.0950000000	the spike
0.0950000000	the designing
0.0950000000	the ieee
0.0950000000	most difficult
0.0950000000	the descriptive
0.0950000000	most salient
0.0950000000	the subtle
0.0950000000	the recording
0.0950000000	the difficult
0.0950000000	the widespread
0.0950000000	most studied
0.0950000000	the multidimensional
0.0950000000	the surveillance
0.0950000000	the analyzed
0.0950000000	the lab
0.0950000000	not generally
0.0950000000	the simplex
0.0950000000	not result
0.0950000000	the realistic
0.0950000000	the generating
0.0950000000	the speedup
0.0950000000	the blind
0.0950000000	the 3rd
0.0950000000	the times
0.0950000000	most promising
0.0950000000	some fundamental
0.0950000000	the latency
0.0950000000	not efficiently
0.0950000000	the overfitting
0.0950000000	the switchboard
0.0950000000	not sufficiently
0.0950000000	most fundamental
0.0950000000	most critical
0.0950000000	despite recent
0.0950000000	most representative
0.0950000000	most complex
0.0950000000	most challenging
0.0950000000	the extremely
0.0950000000	the certainty
0.0950000000	most works
0.0950000000	the centroid
0.0950000000	the seminal
0.0950000000	the schema
0.0950000000	the distinct
0.0950000000	not improve
0.0950000000	most practical
0.0950000000	some sense
0.0950000000	the live
0.0950000000	not previously
0.0950000000	most tasks
0.0950000000	the coming
0.0950000000	the amazon
0.0950000000	most general
0.0950000000	the published
0.0950000000	the stimulus
0.0950000000	the approximations
0.0950000000	most computationally
0.0950000000	the acceleration
0.0950000000	the multilingual
0.0950000000	not yield
0.0950000000	not naturally
0.0950000000	the interesting
0.0950000000	the implication
0.0950000000	the assumed
0.0950000000	the modeled
0.0950000000	provides competitive
0.0950000000	the centroids
0.0950000000	most efficient
0.0950000000	the iterations
0.0950000000	most widely
0.0950000000	not affect
0.0950000000	the uci
0.0950000000	the possibly
0.0950000000	the beam
0.0950000000	the mined
0.0950000000	most algorithms
0.0950000000	associated optimization
0.0950000000	the smoothness
0.0950000000	the home
0.0950000000	the relu
0.0950000000	not converge
0.0950000000	the government
0.0950000000	the birth
0.0950000000	not visible
0.0950000000	the lfw
0.0950000000	the train
0.0950000000	most modern
0.0950000000	the unified
0.0950000000	not practical
0.0950000000	the experience
0.0950000000	the noiseless
0.0950000000	not satisfy
0.0950000000	the toolbox
0.0950000000	the release
0.0950000000	not impossible
0.0950000000	the repeated
0.0950000000	the publication
0.0950000000	the neuronal
0.0950000000	the annotated
0.0950000000	not increase
0.0950000000	the parameterized
0.0950000000	not properly
0.0950000000	not accurate
0.0950000000	not offer
0.0950000000	the diverse
0.0950000000	not produce
0.0950000000	provides superior
0.0950000000	the partially
0.0950000000	the studies
0.0950000000	the complicated
0.0950000000	the intuitive
0.0950000000	some empirical
0.0950000000	not support
0.0950000000	the degradation
0.0950000000	the linearity
0.0950000000	the disadvantages
0.0950000000	the deeper
0.0950000000	the erm
0.0950000000	the geometrical
0.0950000000	the refined
0.0950000000	the ways
0.0950000000	the edit
0.0950000000	the problematic
0.0950000000	the demands
0.0950000000	the gains
0.0950000000	some open
0.0950000000	the unstructured
0.0950000000	the findings
0.0950000000	the interior
0.0950000000	the synergy
0.0950000000	the height
0.0950000000	the cubic
0.0950000000	the bandit
0.0950000000	the fitted
0.0950000000	the infrastructure
0.0950000000	the optimizer
0.0950000000	the costly
0.0950000000	the equal
0.0950000000	the c
0.0950000000	the industrial
0.0950000000	the motivations
0.0950000000	the desirable
0.0950000000	the targeted
0.0950000000	the discriminating
0.0950000000	the decisions
0.0950000000	the proximity
0.0950000000	the mechanics
0.0950000000	the systematic
0.0950000000	the preceding
0.0950000000	the eigenvalues
0.0950000000	the receiver
0.0950000000	the late
0.0950000000	the timit
0.0950000000	the wall
0.0950000000	the perfect
0.0950000000	the kullback
0.0950000000	the german
0.0950000000	the pedestrian
0.0950000000	the gated
0.0950000000	the f1
0.0950000000	the timing
0.0950000000	the genome
0.0950000000	the skill
0.0950000000	the redundant
0.0950000000	the tremendous
0.0950000000	the contours
0.0950000000	the shapes
0.0950000000	the uncertain
0.0950000000	the picture
0.0950000000	the surprising
0.0950000000	provides insights
0.0950000000	the optimized
0.0950000000	the trend
0.0950000000	the ongoing
0.0950000000	the adjacent
0.0950000000	the provided
0.0950000000	the opponent
0.0950000000	the word2vec
0.0950000000	the remarkable
0.0950000000	the 2015
0.0950000000	the utterance
0.0950000000	the adopted
0.0950000000	the linked
0.0950000000	the multilayer
0.0950000000	the physics
0.0950000000	the cortical
0.0950000000	the simplified
0.0950000000	the apparent
0.0950000000	the uk
0.0950000000	the versatility
0.0950000000	the progressive
0.0950000000	the formulated
0.0950000000	the heterogeneous
0.0950000000	the locality
0.0950000000	the 20
0.0950000000	the operations
0.0950000000	the element
0.0950000000	the parent
0.0950000000	the insights
0.0950000000	the saturation
0.0950000000	the injection
0.0950000000	the slow
0.0950000000	the automotive
0.0950000000	the reliance
0.0950000000	the rademacher
0.0950000000	the tractability
0.0950000000	the biologically
0.0950000000	the evolved
0.0950000000	the desire
0.0950000000	the selective
0.0950000000	the dark
0.0950000000	the interference
0.0950000000	the rapidly
0.0950000000	the incoming
0.0950000000	the rough
0.0950000000	most natural
0.0950000000	the recognized
0.0950000000	the implemented
0.0950000000	the obvious
0.0950000000	the biases
0.0950000000	the technology
0.0950000000	the website
0.0950000000	the appeal
0.0950000000	the primitive
0.0950000000	the modular
0.0950000000	the built
0.0950000000	some researchers
0.0950000000	some domains
0.0950000000	some classic
0.0950000000	some attempts
0.0950000000	some tasks
0.0950000000	some issues
0.0950000000	some promising
0.0950000000	some domain
0.0950000000	some technical
0.0950000000	some algorithms
0.0950000000	some advantages
0.0950000000	some challenges
0.0950000000	some small
0.0950000000	some prior
0.0950000000	some evidence
0.0950000000	some improvements
0.0950000000	some characteristics
0.0950000000	some potential
0.0950000000	some extensions
0.0950000000	the iterated
0.0950000000	the eigenvalue
0.0950000000	provides significant
0.0950000000	not independent
0.0950000000	the quick
0.0950000000	some general
0.0950000000	not address
0.0950000000	the pearson
0.0950000000	the branch
0.0950000000	some related
0.0950000000	some scenarios
0.0950000000	some previous
0.0950000000	most discriminative
0.0950000000	the brightness
0.0950000000	the mechanisms
0.0950000000	m method
0.0950000000	the overlap
0.0950000000	c c
0.0950000000	the computationally
0.0950000000	the familiar
0.0950000000	the diagonal
0.0950000000	the cold
0.0950000000	the u.s
0.0950000000	the envelope
0.0950000000	the caffe
0.0950000000	the division
0.0950000000	some benchmark
0.0950000000	some situations
0.0950000000	the recommended
0.0950000000	the linkage
0.0950000000	most applications
0.0950000000	the polar
0.0950000000	some instances
0.0950000000	some degree
0.0950000000	the rational
0.0950000000	the squad
0.0950000000	the longitudinal
0.0950000000	the recorded
0.0950000000	the clustered
0.0950000000	the nonlinearity
0.0950000000	the workflow
0.0950000000	not observed
0.0950000000	the severe
0.0950000000	the separability
0.0950000000	the claim
0.0950000000	the plain
0.0950000000	the closeness
0.0950000000	the focal
0.0950000000	some results
0.0950000000	the tracked
0.0950000000	the transmission
0.0950000000	the distinctive
0.0950000000	the denoised
0.0950000000	some special
0.0950000000	not assume
0.0950000000	the physiological
0.0950000000	the option
0.0950000000	the air
0.0950000000	the count
0.0950000000	the transitions
0.0950000000	the perspectives
0.0950000000	the gauss
0.0950000000	some approaches
0.0950000000	using 4
0.0950000000	using matlab
0.0950000000	using static
0.0950000000	known techniques
0.0950000000	using convex
0.0950000000	using learned
0.0950000000	using cross
0.0950000000	over prior
0.0950000000	using evolutionary
0.0950000000	using matrix
0.0950000000	using linear
0.0950000000	using intelligent
0.0950000000	using clustering
0.0950000000	using feature
0.0950000000	using binary
0.0950000000	another approach
0.0950000000	known problems
0.0950000000	using raw
0.0950000000	using decision
0.0950000000	using finite
0.0950000000	such processes
0.0950000000	such representation
0.0950000000	through simulation
0.0950000000	through image
0.0950000000	using features
0.0950000000	using gabor
0.0950000000	another algorithm
0.0950000000	another set
0.0950000000	another important
0.0950000000	another method
0.0950000000	another neural
0.0950000000	using latent
0.0950000000	known datasets
0.0950000000	using graph
0.0950000000	using stereo
0.0950000000	all state
0.0950000000	make strong
0.0950000000	make explicit
0.0950000000	make inference
0.0950000000	make accurate
0.0950000000	using tree
0.0950000000	using principal
0.0950000000	using nearest
0.0950000000	using color
0.0950000000	using minimum
0.0950000000	using weak
0.0950000000	using randomized
0.0950000000	using 1
0.0950000000	using variational
0.0950000000	rather limited
0.0950000000	up sampling
0.0950000000	using weakly
0.0950000000	known algorithm
0.0950000000	using wavelet
0.0950000000	up approach
0.0950000000	known upper
0.0950000000	known distribution
0.0950000000	known benchmark
0.0950000000	known approach
0.0950000000	using svm
0.0950000000	known problem
0.0950000000	known bounds
0.0950000000	using cascaded
0.0950000000	known methods
0.0950000000	using structural
0.0950000000	through interaction
0.0950000000	known approaches
0.0950000000	using random
0.0950000000	using simulated
0.0950000000	over single
0.0950000000	using lstms
0.0950000000	using alternating
0.0950000000	using general
0.0950000000	about complex
0.0950000000	known method
0.0950000000	about objects
0.0950000000	known statistical
0.0950000000	about 1
0.0950000000	using current
0.0950000000	using gan
0.0950000000	through data
0.0950000000	using dempster
0.0950000000	all source
0.0950000000	using efficient
0.0950000000	another network
0.0950000000	all experiments
0.0950000000	such scenarios
0.0950000000	using depth
0.0950000000	using human
0.0950000000	using backpropagation
0.0950000000	using unsupervised
0.0950000000	using advanced
0.0950000000	system produces
0.0950000000	over 2
0.0950000000	over networks
0.0950000000	over 100
0.0950000000	over alternative
0.0950000000	over arbitrary
0.0950000000	over multi
0.0950000000	over current
0.0950000000	over competing
0.0950000000	over discrete
0.0950000000	over 6
0.0950000000	over random
0.0950000000	over 20
0.0950000000	over training
0.0950000000	over 7
0.0950000000	over 50
0.0950000000	such local
0.0950000000	about images
0.0950000000	through convolutional
0.0950000000	over previously
0.0950000000	over 3
0.0950000000	all times
0.0950000000	all models
0.0950000000	such dependencies
0.0950000000	such approximations
0.0950000000	such assumptions
0.0950000000	such annotations
0.0950000000	over complete
0.0950000000	such issues
0.0950000000	such limitations
0.0950000000	over 30
0.0950000000	such settings
0.0950000000	such complex
0.0950000000	using simulations
0.0950000000	such relations
0.0950000000	such analysis
0.0950000000	such structure
0.0950000000	such techniques
0.0950000000	using classification
0.0950000000	using multilayer
0.0950000000	using rough
0.0950000000	about 4
0.0950000000	over baseline
0.0950000000	such domains
0.0950000000	using experiments
0.0950000000	using robust
0.0950000000	such situations
0.0950000000	all real
0.0950000000	through empirical
0.0950000000	such results
0.0950000000	using spectral
0.0950000000	using integer
0.0950000000	using automatic
0.0950000000	over segmented
0.0950000000	using motion
0.0950000000	about visual
0.0950000000	such properties
0.0950000000	using optimal
0.0950000000	using long
0.0950000000	over continuous
0.0950000000	over strong
0.0950000000	using 2d
0.0950000000	using fewer
0.0950000000	using structured
0.0950000000	known structure
0.0950000000	over long
0.0950000000	using similarity
0.0950000000	using learning
0.0950000000	using discrete
0.0950000000	all domains
0.0950000000	through simple
0.0950000000	such deep
0.0950000000	over binary
0.0950000000	using single
0.0950000000	such algorithm
0.0950000000	all input
0.0950000000	using images
0.0950000000	using noisy
0.0950000000	using linguistic
0.0950000000	using 10
0.0950000000	such conditions
0.0950000000	using contextual
0.0950000000	about users
0.0950000000	system performs
0.0950000000	such examples
0.0950000000	all parameters
0.0950000000	such method
0.0950000000	using joint
0.0950000000	such model
0.0950000000	system generates
0.0950000000	system level
0.0950000000	such problem
0.0950000000	using statistical
0.0950000000	system including
0.0950000000	such inference
0.0950000000	using numerical
0.0950000000	using twitter
0.0950000000	using probability
0.0950000000	using pairwise
0.0950000000	using visual
0.0950000000	using sparse
0.0950000000	using heuristic
0.0950000000	using open
0.0950000000	using cnns
0.0950000000	over baselines
0.0950000000	using fixed
0.0950000000	using weighted
0.0950000000	about knowledge
0.0950000000	take values
0.0950000000	about actions
0.0950000000	using pca
0.0950000000	using empirical
0.0950000000	system architecture
0.0950000000	using concepts
0.0950000000	using distributed
0.0950000000	using knowledge
0.0950000000	system model
0.0950000000	using significantly
0.0950000000	over words
0.0950000000	using training
0.0950000000	over 5
0.0950000000	using rule
0.0950000000	through experimental
0.0950000000	all states
0.0950000000	using spatial
0.0950000000	through combining
0.0950000000	known graph
0.0950000000	using pso
0.0950000000	known algorithms
0.0950000000	all relevant
0.0950000000	through large
0.0950000000	over large
0.0950000000	using video
0.0950000000	over finite
0.0950000000	using soft
0.0950000000	over latent
0.0950000000	system dynamics
0.0950000000	using wikipedia
0.0950000000	through probabilistic
0.0950000000	using auxiliary
0.0950000000	over functions
0.0950000000	using small
0.0950000000	about data
0.0950000000	rather simple
0.0950000000	using vector
0.0950000000	using samples
0.0950000000	about user
0.0950000000	known image
0.0950000000	using lstm
0.0950000000	system size
0.0950000000	using ground
0.0950000000	using traditional
0.0950000000	using partial
0.0950000000	using recent
0.0950000000	using hidden
0.0950000000	using recurrent
0.0950000000	over small
0.0950000000	using 2
0.0950000000	using modified
0.0950000000	over classical
0.0950000000	using large
0.0950000000	over sets
0.0950000000	using temporal
0.0950000000	using global
0.0950000000	using hierarchical
0.0950000000	using character
0.0950000000	such approach
0.0950000000	using simulation
0.0950000000	all components
0.0950000000	all considered
0.0950000000	through analyzing
0.0950000000	system shows
0.0950000000	using web
0.0950000000	using attention
0.0950000000	system optimization
0.0950000000	using information
0.0950000000	using classical
0.0950000000	system developed
0.0950000000	using bidirectional
0.0950000000	using public
0.0950000000	using google
0.0950000000	such challenges
0.0950000000	system designed
0.0950000000	all datasets
0.0950000000	such studies
0.0950000000	all information
0.0950000000	all points
0.0950000000	using automated
0.0950000000	system obtains
0.0950000000	using direct
0.0950000000	using kernel
0.0950000000	through local
0.0950000000	using mobile
0.0950000000	using semantic
0.0950000000	using active
0.0950000000	through stochastic
0.0950000000	through learning
0.0950000000	through natural
0.0950000000	through gradient
0.0950000000	through random
0.0950000000	through multi
0.0950000000	through multiple
0.0950000000	such behavior
0.0950000000	through information
0.0950000000	system automatically
0.0950000000	about word
0.0950000000	using generative
0.0950000000	through online
0.0950000000	through quantitative
0.0950000000	using expert
0.0950000000	using fast
0.0950000000	using parallel
0.0950000000	system design
0.0950000000	using rgb
0.0950000000	system named
0.0950000000	using additional
0.0950000000	all samples
0.0950000000	using adaptive
0.0950000000	all algorithms
0.0950000000	all tested
0.0950000000	using hybrid
0.0950000000	using geometric
0.0950000000	system learns
0.0950000000	system takes
0.0950000000	system works
0.0950000000	system parameters
0.0950000000	system models
0.0950000000	system requires
0.0950000000	system description
0.0950000000	system makes
0.0950000000	using dense
0.0950000000	known result
0.0950000000	using histogram
0.0950000000	such setting
0.0950000000	all networks
0.0950000000	all constraints
0.0950000000	all settings
0.0950000000	such functions
0.0950000000	such structures
0.0950000000	such large
0.0950000000	using conditional
0.0950000000	all applications
0.0950000000	all problems
0.0950000000	all languages
0.0950000000	using external
0.0950000000	using complex
0.0950000000	using greedy
0.0950000000	over recent
0.0950000000	system achieved
0.0950000000	all local
0.0950000000	all frames
0.0950000000	all pixels
0.0950000000	all neural
0.0950000000	all images
0.0950000000	all layers
0.0950000000	all levels
0.0950000000	all convolutional
0.0950000000	all pairwise
0.0950000000	all training
0.0950000000	all current
0.0950000000	all prior
0.0950000000	all generated
0.0950000000	all previously
0.0950000000	all instances
0.0950000000	all classes
0.0950000000	all steps
0.0950000000	such datasets
0.0950000000	all variables
0.0950000000	using existing
0.0950000000	using conventional
0.0950000000	using multimodal
0.0950000000	using probabilistic
0.0950000000	using datasets
0.0950000000	using simple
0.0950000000	using belief
0.0950000000	using markov
0.0950000000	using tensor
0.0950000000	using low
0.0950000000	using unlabeled
0.0950000000	using modern
0.0950000000	using fine
0.0950000000	using automatically
0.0950000000	using continuous
0.0950000000	using recently
0.0950000000	using brain
0.0950000000	using prior
0.0950000000	using model
0.0950000000	using adversarial
0.0950000000	using techniques
0.0950000000	using approximate
0.0950000000	using online
0.0950000000	using iterative
0.0950000000	using ensemble
0.0950000000	using cnn
0.0950000000	using methods
0.0950000000	using benchmark
0.0950000000	using maximum
0.0950000000	using historical
0.0950000000	using generalized
0.0950000000	using shape
0.0950000000	system capable
0.0950000000	of parallelism
0.0950000000	only reduces
0.0950000000	only produce
0.0950000000	of desirable
0.0950000000	of child
0.0950000000	of scales
0.0950000000	of 16
0.0950000000	of integrating
0.0950000000	of cells
0.0950000000	of predicted
0.0950000000	of environments
0.0950000000	of challenges
0.0950000000	of thinking
0.0950000000	of verification
0.0950000000	of tractable
0.0950000000	of acoustic
0.0950000000	of ambiguity
0.0950000000	of position
0.0950000000	of variants
0.0950000000	computer model
0.0950000000	of important
0.0950000000	enough data
0.0950000000	very flexible
0.0950000000	of reading
0.0950000000	of products
0.0950000000	of stimuli
0.0950000000	of null
0.0950000000	of clean
0.0950000000	of electronic
0.0950000000	of effectively
0.0950000000	of concrete
0.0950000000	of freedom
0.0950000000	of inducing
0.0950000000	of mixed
0.0950000000	of care
0.0950000000	of filtering
0.0950000000	of benchmarks
0.0950000000	of decomposing
0.0950000000	of generators
0.0950000000	of cases
0.0950000000	of changing
0.0950000000	of evaluation
0.0950000000	of movement
0.0950000000	of partially
0.0950000000	of entire
0.0950000000	of disciplines
0.0950000000	of approaches
0.0950000000	of summary
0.0950000000	of symmetric
0.0950000000	of pure
0.0950000000	of optimizing
0.0950000000	of ell
0.0950000000	of behavior
0.0950000000	of extensions
0.0950000000	of degree
0.0950000000	of equal
0.0950000000	of connectivity
0.0950000000	of recovery
0.0950000000	of average
0.0950000000	of poor
0.0950000000	of 15
0.0950000000	of speeding
0.0950000000	of connected
0.0950000000	of details
0.0950000000	of significantly
0.0950000000	of precision
0.0950000000	of 6
0.0950000000	of benchmark
0.0950000000	of conditioning
0.0950000000	of spaces
0.0950000000	of connections
0.0950000000	of successive
0.0950000000	of historical
0.0950000000	of 21
0.0950000000	of rgb
0.0950000000	via human
0.0950000000	of theoretical
0.0950000000	given network
0.0950000000	of imaging
0.0950000000	only outperforms
0.0950000000	i introduce
0.0950000000	full range
0.0950000000	full rank
0.0950000000	of air
0.0950000000	of metaheuristics
0.0950000000	of labelled
0.0950000000	of running
0.0950000000	of everyday
0.0950000000	more involved
0.0950000000	more abstract
0.0950000000	but noisy
0.0950000000	no comprehensive
0.0950000000	no user
0.0950000000	no existing
0.0950000000	no efficient
0.0950000000	no information
0.0950000000	no computational
0.0950000000	no direct
0.0950000000	no training
0.0950000000	useful knowledge
0.0950000000	useful data
0.0950000000	useful features
0.0950000000	useful representations
0.0950000000	useful technique
0.0950000000	useful properties
0.0950000000	of isolated
0.0950000000	of log
0.0950000000	of technical
0.0950000000	of simultaneously
0.0950000000	of fine
0.0950000000	of indian
0.0950000000	more attractive
0.0950000000	of encoding
0.0950000000	more significant
0.0950000000	of expected
0.0950000000	of original
0.0950000000	of situations
0.0950000000	of birds
0.0950000000	given question
0.0950000000	of persons
0.0950000000	of kolmogorov
0.0950000000	of coarse
0.0950000000	of pearl
0.0950000000	of admissible
0.0950000000	of operational
0.0950000000	of projections
0.0950000000	of spatially
0.0950000000	of laser
0.0950000000	of singular
0.0950000000	of millions
0.0950000000	of plausible
0.0950000000	of customer
0.0950000000	of checking
0.0950000000	of mdps
0.0950000000	of association
0.0950000000	more strongly
0.0950000000	of final
0.0950000000	of unstructured
0.0950000000	no general
0.0950000000	of channels
0.0950000000	only considers
0.0950000000	of success
0.0950000000	of applied
0.0950000000	against noise
0.0950000000	against human
0.0950000000	of phonemes
0.0950000000	only perform
0.0950000000	more standard
0.0950000000	of contemporary
0.0950000000	of demonstrations
0.0950000000	of molecular
0.0950000000	very weak
0.0950000000	very recently
0.0950000000	very natural
0.0950000000	very robust
0.0950000000	very easily
0.0950000000	very compact
0.0950000000	of dcnn
0.0950000000	of hundreds
0.0950000000	of localized
0.0950000000	more plausible
0.0950000000	more desirable
0.0950000000	full model
0.0950000000	more interesting
0.0950000000	no free
0.0950000000	more commonly
0.0950000000	top layer
0.0950000000	more straightforward
0.0950000000	of recall
0.0950000000	of correlated
0.0950000000	of researchers
0.0950000000	of signals
0.0950000000	of 82
0.0950000000	of post
0.0950000000	of recently
0.0950000000	of considered
0.0950000000	of french
0.0950000000	of descriptions
0.0950000000	of establishing
0.0950000000	of interactions
0.0950000000	of introducing
0.0950000000	of f1
0.0950000000	of transforming
0.0950000000	of relationship
0.0950000000	of studies
0.0950000000	of auxiliary
0.0950000000	of bleu
0.0950000000	full network
0.0950000000	of correlations
0.0950000000	of estimators
0.0950000000	of word2vec
0.0950000000	of gold
0.0950000000	of sea
0.0950000000	of wearable
0.0950000000	of articulated
0.0950000000	of freely
0.0950000000	of learners
0.0950000000	of vehicles
0.0950000000	of asymptotic
0.0950000000	of connection
0.0950000000	of geometry
0.0950000000	after learning
0.0950000000	of extending
0.0950000000	of bag
0.0950000000	more representative
0.0950000000	only word
0.0950000000	of invariance
0.0950000000	via recurrent
0.0950000000	more research
0.0950000000	of fourier
0.0950000000	of treatment
0.0950000000	of lower
0.0950000000	of history
0.0950000000	of writing
0.0950000000	of comparing
0.0950000000	of upper
0.0950000000	of understanding
0.0950000000	of communicating
0.0950000000	via robust
0.0950000000	of fused
0.0950000000	of spoken
0.0950000000	of forward
0.0950000000	of encoder
0.0950000000	of identity
0.0950000000	of separate
0.0950000000	of procedures
0.0950000000	of facts
0.0950000000	of generated
0.0950000000	of automatically
0.0950000000	of atomic
0.0950000000	of unique
0.0950000000	of predefined
0.0950000000	of occurrence
0.0950000000	of public
0.0950000000	of integrated
0.0950000000	of plane
0.0950000000	full images
0.0950000000	full image
0.0950000000	of 18
0.0950000000	full data
0.0950000000	full dataset
0.0950000000	full potential
0.0950000000	full training
0.0950000000	full set
0.0950000000	of distributional
0.0950000000	of gpus
0.0950000000	of removing
0.0950000000	of close
0.0950000000	of wavelets
0.0950000000	of colors
0.0950000000	of crowdsourcing
0.0950000000	computer experiments
0.0950000000	computer architectures
0.0950000000	computer program
0.0950000000	computer networks
0.0950000000	computer interaction
0.0950000000	of intuitive
0.0950000000	of preference
0.0950000000	of bangla
0.0950000000	of converting
0.0950000000	of author
0.0950000000	more principled
0.0950000000	of movies
0.0950000000	of vanishing
0.0950000000	of preprocessing
0.0950000000	but require
0.0950000000	but significantly
0.0950000000	of max
0.0950000000	computer generated
0.0950000000	of core
0.0950000000	of measure
0.0950000000	of utilizing
0.0950000000	of adaptively
0.0950000000	of explicit
0.0950000000	of alternating
0.0950000000	of long
0.0950000000	of rating
0.0950000000	of complicated
0.0950000000	of systematic
0.0950000000	of manual
0.0950000000	of uniform
0.0950000000	of written
0.0950000000	of producing
0.0950000000	of auto
0.0950000000	of years
0.0950000000	no performance
0.0950000000	no ground
0.0950000000	of actual
0.0950000000	no special
0.0950000000	of extra
0.0950000000	more rigorous
0.0950000000	via feature
0.0950000000	given sufficient
0.0950000000	of trainable
0.0950000000	of pruning
0.0950000000	of convolutions
0.0950000000	of fisher
0.0950000000	of declarative
0.0950000000	of clusterings
0.0950000000	of economic
0.0950000000	but typically
0.0950000000	of generations
0.0950000000	of category
0.0950000000	of partitions
0.0950000000	of leading
0.0950000000	of feedforward
0.0950000000	of books
0.0950000000	of downstream
0.0950000000	of temporally
0.0950000000	of multilingual
0.0950000000	of piecewise
0.0950000000	of intensity
0.0950000000	of bayes
0.0950000000	of ancient
0.0950000000	of linked
0.0950000000	of experience
0.0950000000	of voxels
0.0950000000	of neuronal
0.0950000000	of 40
0.0950000000	of fixed
0.0950000000	of proof
0.0950000000	of consecutive
0.0950000000	of solution
0.0950000000	of iterative
0.0950000000	of penalized
0.0950000000	of expressive
0.0950000000	but effective
0.0950000000	of parametric
0.0950000000	of consistency
0.0950000000	of subjective
0.0950000000	only weakly
0.0950000000	of matching
0.0950000000	of truncated
0.0950000000	of evolving
0.0950000000	of lesions
0.0950000000	of morphologically
0.0950000000	of innovation
0.0950000000	of wikipedia
0.0950000000	of locally
0.0950000000	of dimensionality
0.0950000000	of saddle
0.0950000000	of reconstructing
0.0950000000	of potentially
0.0950000000	of aligned
0.0950000000	of pattern
0.0950000000	of pedestrians
0.0950000000	of locating
0.0950000000	of modelling
0.0950000000	of chaotic
0.0950000000	of localization
0.0950000000	of multiscale
0.0950000000	of 14
0.0950000000	of transition
0.0950000000	of 19
0.0950000000	of smaller
0.0950000000	of adapting
0.0950000000	of 500
0.0950000000	of covariance
0.0950000000	of inspiration
0.0950000000	of optimality
0.0950000000	of early
0.0950000000	of connectionist
0.0950000000	of 17
0.0950000000	more relevant
0.0950000000	of terms
0.0950000000	of predicates
0.0950000000	of configurations
0.0950000000	more frequent
0.0950000000	of monolingual
0.0950000000	of promising
0.0950000000	of artifacts
0.0950000000	more images
0.0950000000	of automating
0.0950000000	of algebraic
0.0950000000	of operator
0.0950000000	via convolutional
0.0950000000	of 4
0.0950000000	more tractable
0.0950000000	of extracted
0.0950000000	only applicable
0.0950000000	of stable
0.0950000000	of articles
0.0950000000	more intelligent
0.0950000000	of difficulty
0.0950000000	of investigation
0.0950000000	of sensitive
0.0950000000	of transmission
0.0950000000	top level
0.0950000000	of differing
0.0950000000	only input
0.0950000000	of tracked
0.0950000000	of technology
0.0950000000	of gaussians
0.0950000000	of resolving
0.0950000000	more quickly
0.0950000000	no algorithm
0.0950000000	of greedy
0.0950000000	full bayesian
0.0950000000	of searching
0.0950000000	of agreement
0.0950000000	of main
0.0950000000	of symmetry
0.0950000000	almost optimal
0.0950000000	of 1.5
0.0950000000	of severe
0.0950000000	of priors
0.0950000000	of goals
0.0950000000	of mental
0.0950000000	of organs
0.0950000000	of photos
0.0950000000	of explicitly
0.0950000000	of observational
0.0950000000	of jobs
0.0950000000	of hands
0.0950000000	of monocular
0.0950000000	of explanatory
0.0950000000	of photographs
0.0950000000	more frequently
0.0950000000	via simple
0.0950000000	of difficult
0.0950000000	of cooperative
0.0950000000	of industrial
0.0950000000	of compact
0.0950000000	of illumination
0.0950000000	of purely
0.0950000000	of plant
0.0950000000	of scalar
0.0950000000	of observing
0.0950000000	but fail
0.0950000000	very common
0.0950000000	of semeval
0.0950000000	of measurement
0.0950000000	only small
0.0950000000	of nouns
0.0950000000	of entailment
0.0950000000	given sentence
0.0950000000	of epochs
0.0950000000	of aggregation
0.0950000000	only improves
0.0950000000	of elements
0.0950000000	of reliability
0.0950000000	of blocks
0.0950000000	of chemical
0.0950000000	of related
0.0950000000	of retaining
0.0950000000	no human
0.0950000000	of sight
0.0950000000	no learning
0.0950000000	of perfect
0.0950000000	of monotone
0.0950000000	of true
0.0950000000	of moments
0.0950000000	of alternatives
0.0950000000	of speakers
0.0950000000	of techniques
0.0950000000	of pathological
0.0950000000	of existence
0.0950000000	of categorical
0.0950000000	of compound
0.0950000000	of competing
0.0950000000	of death
0.0950000000	of orientation
0.0950000000	no assumptions
0.0950000000	of heuristic
0.0950000000	of diagnosis
0.0950000000	of conditions
0.0950000000	more specific
0.0950000000	of camera
0.0950000000	of smoothing
0.0950000000	of granularity
0.0950000000	particularly difficult
0.0950000000	of ideas
0.0950000000	more directly
0.0950000000	given target
0.0950000000	of definitions
0.0950000000	of 12
0.0950000000	of irrelevant
0.0950000000	of ordinary
0.0950000000	of 98
0.0950000000	of linguistics
0.0950000000	of counting
0.0950000000	of robotic
0.0950000000	of integral
0.0950000000	of plausibility
0.0950000000	of redundant
0.0950000000	of interpreting
0.0950000000	of extreme
0.0950000000	of datalog
0.0950000000	of iterates
0.0950000000	of quantifying
0.0950000000	of description
0.0950000000	of completeness
0.0950000000	of locations
0.0950000000	of flat
0.0950000000	of suitable
0.0950000000	of lipschitz
0.0950000000	of polyphonic
0.0950000000	of bernoulli
0.0950000000	of 96
0.0950000000	of associative
0.0950000000	of past
0.0950000000	only 5
0.0950000000	more objective
0.0950000000	of specialized
0.0950000000	of outcomes
0.0950000000	only improve
0.0950000000	of proper
0.0950000000	of segmented
0.0950000000	of focus
0.0950000000	of surface
0.0950000000	of ambiguous
0.0950000000	of 60
0.0950000000	of magnitude
0.0950000000	of diseases
0.0950000000	of surveillance
0.0950000000	of fitting
0.0950000000	of conversations
0.0950000000	of divergence
0.0950000000	of answering
0.0950000000	of simpler
0.0950000000	of grammatical
0.0950000000	of coordinate
0.0950000000	of transient
0.0950000000	of shapes
0.0950000000	of comparable
0.0950000000	of verb
0.0950000000	of team
0.0950000000	of bases
0.0950000000	of children
0.0950000000	of dynamics
0.0950000000	of remaining
0.0950000000	of sift
0.0950000000	of verbs
0.0950000000	of proposed
0.0950000000	of practical
0.0950000000	of spontaneous
0.0950000000	of databases
0.0950000000	of thousands
0.0950000000	of categories
0.0950000000	computer users
0.0950000000	of unmanned
0.0950000000	of leveraging
0.0950000000	of daily
0.0950000000	of marginal
0.0950000000	of resource
0.0950000000	of baselines
0.0950000000	of graphics
0.0950000000	of internet
0.0950000000	of bounding
0.0950000000	of discriminative
0.0950000000	of intense
0.0950000000	of repeated
0.0950000000	of experimental
0.0950000000	of exponential
0.0950000000	of obtained
0.0950000000	of rate
0.0950000000	of directions
0.0950000000	but efficient
0.0950000000	of structure
0.0950000000	of parsing
0.0950000000	of rare
0.0950000000	of correctly
0.0950000000	more direct
0.0950000000	of storing
0.0950000000	of multitask
0.0950000000	of minimum
0.0950000000	more global
0.0950000000	of optimized
0.0950000000	of factors
0.0950000000	of overfitting
0.0950000000	of fully
0.0950000000	of dependencies
0.0950000000	of spatiotemporal
0.0950000000	of previously
0.0950000000	of distinct
0.0950000000	of fast
0.0950000000	of 80
0.0950000000	of recommender
0.0950000000	of commercial
0.0950000000	of step
0.0950000000	of perturbation
0.0950000000	of svms
0.0950000000	of effort
0.0950000000	of closed
0.0950000000	of rewards
0.0950000000	of trials
0.0950000000	of coupled
0.0950000000	of lines
0.0950000000	of earlier
0.0950000000	only 10
0.0950000000	of efficiently
0.0950000000	of established
0.0950000000	of exploiting
0.0950000000	of policies
0.0950000000	of handling
0.0950000000	of periodic
0.0950000000	of pomdps
0.0950000000	of explaining
0.0950000000	given data
0.0950000000	only considered
0.0950000000	of diagnostic
0.0950000000	of diabetic
0.0950000000	of autonomous
0.0950000000	of choices
0.0950000000	of alexnet
0.0950000000	of orthogonal
0.0950000000	of animal
0.0950000000	of internal
0.0950000000	of discovering
0.0950000000	of exact
0.0950000000	of mass
0.0950000000	of degrees
0.0950000000	of psychological
0.0950000000	of euclidean
0.0950000000	of paper
0.0950000000	of topical
0.0950000000	of pos
0.0950000000	of times
0.0950000000	of successful
0.0950000000	of adjacent
0.0950000000	of evaluations
0.0950000000	of morphological
0.0950000000	of quasi
0.0950000000	very significant
0.0950000000	of base
0.0950000000	of drugs
0.0950000000	of motor
0.0950000000	of epistemic
0.0950000000	of denoising
0.0950000000	of utterances
0.0950000000	of symbolic
0.0950000000	of hyper
0.0950000000	of free
0.0950000000	of growing
0.0950000000	of treating
0.0950000000	no reference
0.0950000000	of expensive
0.0950000000	of semantically
0.0950000000	of chaos
0.0950000000	of gradients
0.0950000000	of widely
0.0950000000	of possibly
0.0950000000	of variability
0.0950000000	of assessing
0.0950000000	of combinatorial
0.0950000000	of external
0.0950000000	of mu
0.0950000000	of informative
0.0950000000	of certainty
0.0950000000	of inductive
0.0950000000	of parameterized
0.0950000000	very recent
0.0950000000	of 8
0.0950000000	of 11
0.0950000000	of emerging
0.0950000000	of larger
0.0950000000	only takes
0.0950000000	of criteria
0.0950000000	of steps
0.0950000000	of dissimilarity
0.0950000000	of polynomials
0.0950000000	of interests
0.0950000000	given video
0.0950000000	of 95
0.0950000000	of execution
0.0950000000	of sophisticated
0.0950000000	of 24
0.0950000000	of baseline
0.0950000000	of field
0.0950000000	of blind
0.0950000000	of open
0.0950000000	of computations
0.0950000000	of left
0.0950000000	of sampled
0.0950000000	of patches
0.0950000000	of hardware
0.0950000000	of joints
0.0950000000	of meaningful
0.0950000000	of experiences
0.0950000000	of partitioning
0.0950000000	of paintings
0.0950000000	of published
0.0950000000	of line
0.0950000000	of conversation
0.0950000000	of synthesizing
0.0950000000	of architectural
0.0950000000	of expressing
0.0950000000	of objective
0.0950000000	of neighboring
0.0950000000	of activation
0.0950000000	of abstract
0.0950000000	of speed
0.0950000000	of characteristic
0.0950000000	of quantized
0.0950000000	of reward
0.0950000000	against existing
0.0950000000	of extremely
0.0950000000	of massive
0.0950000000	of jointly
0.0950000000	of feed
0.0950000000	of learnable
0.0950000000	of statements
0.0950000000	of simulated
0.0950000000	of frequency
0.0950000000	of argument
0.0950000000	of rounds
0.0950000000	of function
0.0950000000	of automation
0.0950000000	very strong
0.0950000000	of decoding
0.0950000000	of mnist
0.0950000000	of entries
0.0950000000	of today
0.0950000000	of semantics
0.0950000000	of directly
0.0950000000	of rotating
0.0950000000	of 30
0.0950000000	of counterfactual
0.0950000000	of textual
0.0950000000	of nns
0.0950000000	of task
0.0950000000	of tumors
0.0950000000	of settings
0.0950000000	of multimodal
0.0950000000	of simplified
0.0950000000	of visually
0.0950000000	of corrupted
0.0950000000	of visualization
0.0950000000	of unlabelled
0.0950000000	of preliminary
0.0950000000	of numeric
0.0950000000	of newton
0.0950000000	of mind
0.0950000000	of heuristics
0.0950000000	of aggregating
0.0950000000	of adding
0.0950000000	of improvement
0.0950000000	of smoothness
0.0950000000	of estimation
0.0950000000	of sqrt
0.0950000000	of newly
0.0950000000	of mapping
0.0950000000	of nature
0.0950000000	of disjoint
0.0950000000	of application
0.0950000000	of numerous
0.0950000000	no common
0.0950000000	of stereo
0.0950000000	of exemplars
0.0950000000	only involves
0.0950000000	of basis
0.0950000000	of arithmetic
0.0950000000	of scanning
0.0950000000	of sensory
0.0950000000	of providing
0.0950000000	of operations
0.0950000000	of bits
0.0950000000	of absolute
0.0950000000	of international
0.0950000000	of interesting
0.0950000000	of tuning
0.0950000000	of deeper
0.0950000000	of acquiring
0.0950000000	of maximum
0.0950000000	of scalability
0.0950000000	of regression
0.0950000000	of quadratic
0.0950000000	of resnet
0.0950000000	of maintaining
0.0950000000	of manipulating
0.0950000000	of visualizing
0.0950000000	of study
0.0950000000	more training
0.0950000000	of stream
0.0950000000	of detected
0.0950000000	of spurious
0.0950000000	more attention
0.0950000000	of computationally
0.0950000000	of supporting
0.0950000000	of recurrent
0.0950000000	of scores
0.0950000000	of coding
0.0950000000	computer based
0.0950000000	of 93
0.0950000000	of poisson
0.0950000000	of mobile
0.0950000000	of preserving
0.0950000000	very rich
0.0950000000	of bilingual
0.0950000000	of multipliers
0.0950000000	of trained
0.0950000000	of analogy
0.0950000000	of scenarios
0.0950000000	of taking
0.0950000000	of combinations
0.0950000000	via dynamic
0.0950000000	of patient
0.0950000000	of incoming
0.0950000000	of person
0.0950000000	of collecting
0.0950000000	of moving
0.0950000000	of raw
0.0950000000	of correct
0.0950000000	of imperfect
0.0950000000	of translating
0.0950000000	more popular
0.0950000000	of coverage
0.0950000000	of mechanisms
0.0950000000	of ground
0.0950000000	of 300
0.0950000000	of phenomena
0.0950000000	of compatibility
0.0950000000	of cheap
0.0950000000	of mr
0.0950000000	of atoms
0.0950000000	more weight
0.0950000000	of regular
0.0950000000	of convexity
0.0950000000	of roughly
0.0950000000	of powerful
0.0950000000	of realistic
0.0950000000	very specific
0.0950000000	of enhancing
0.0950000000	no theoretical
0.0950000000	of mouse
0.0950000000	of processors
0.0950000000	of assumptions
0.0950000000	of unseen
0.0950000000	only information
0.0950000000	of complete
0.0950000000	of pixels
0.0950000000	only achieves
0.0950000000	of safe
0.0950000000	of lstms
0.0950000000	of strongly
0.0950000000	of conflicts
0.0950000000	of static
0.0950000000	of interpretability
0.0950000000	of induction
0.0950000000	of ensembles
0.0950000000	of progress
0.0950000000	of np
0.0950000000	of cardiovascular
0.0950000000	of vision
0.0950000000	of assignments
0.0950000000	of skills
0.0950000000	of challenging
0.0950000000	of unconstrained
0.0950000000	of multimedia
0.0950000000	of inter
0.0950000000	of addressing
0.0950000000	of outputs
0.0950000000	more regular
0.0950000000	of measurements
0.0950000000	of major
0.0950000000	of animals
0.0950000000	only provide
0.0950000000	only depend
0.0950000000	computer simulation
0.0950000000	of broadcast
0.0950000000	of coherent
0.0950000000	of manually
0.0950000000	of deformable
0.0950000000	of flexible
0.0950000000	of 70
0.0950000000	very long
0.0950000000	of employing
0.0950000000	of relevance
0.0950000000	of increasingly
0.0950000000	of dimensions
0.0950000000	very active
0.0950000000	of interval
0.0950000000	of persistent
0.0950000000	of cores
0.0950000000	of foreground
0.0950000000	of navigation
0.0950000000	of unbounded
0.0950000000	of compositionality
0.0950000000	of fault
0.0950000000	of transitions
0.0950000000	of intrinsic
0.0950000000	of surgical
0.0950000000	of cad
0.0950000000	of representing
0.0950000000	of positions
0.0950000000	of dilated
0.0950000000	of flexibility
0.0950000000	of intra
0.0950000000	of secondary
0.0950000000	given limited
0.0950000000	of test
0.0950000000	more common
0.0950000000	of efficiency
0.0950000000	of buildings
0.0950000000	but computationally
0.0950000000	of considerable
0.0950000000	of simplicity
0.0950000000	only linearly
0.0950000000	of 39
0.0950000000	of inferring
0.0950000000	of primary
0.0950000000	of vocabulary
0.0950000000	of cycles
0.0950000000	of dedicated
0.0950000000	of 1000
0.0950000000	of 13
0.0950000000	of scheduling
0.0950000000	of metric
0.0950000000	of mode
0.0950000000	of annotations
0.0950000000	of architecture
0.0950000000	of reasons
0.0950000000	of balancing
0.0950000000	of grounded
0.0950000000	of defining
0.0950000000	only require
0.0950000000	of fields
0.0950000000	given samples
0.0950000000	of superpixels
0.0950000000	of exploration
0.0950000000	of subsequent
0.0950000000	of updating
0.0950000000	of cortical
0.0950000000	of papers
0.0950000000	of sufficient
0.0950000000	of recommendations
0.0950000000	of preferences
0.0950000000	given text
0.0950000000	more competitive
0.0950000000	of links
0.0950000000	of values
0.0950000000	of interaction
0.0950000000	of nesterov
0.0950000000	no previous
0.0950000000	of capturing
0.0950000000	very noisy
0.0950000000	of interpretable
0.0950000000	via spectral
0.0950000000	of prime
0.0950000000	of reconstructed
0.0950000000	of iterations
0.0950000000	very powerful
0.0950000000	of storage
0.0950000000	very accurate
0.0950000000	of populations
0.0950000000	of differentiable
0.0950000000	of cpu
0.0950000000	of neighborhood
0.0950000000	of regularized
0.0950000000	of occluded
0.0950000000	of instrumental
0.0950000000	of compressed
0.0950000000	of loopy
0.0950000000	of update
0.0950000000	of 32
0.0950000000	of speckle
0.0950000000	of maximal
0.0950000000	more intuitive
0.0950000000	of nonparametric
0.0950000000	of analyzing
0.0950000000	of parents
0.0950000000	of deciding
0.0950000000	only local
0.0950000000	of false
0.0950000000	of covariates
0.0950000000	of sizes
0.0950000000	of i.i.d
0.0950000000	of annotated
0.0950000000	of inferences
0.0950000000	of locality
0.0950000000	of losses
0.0950000000	of arbitrarily
0.0950000000	given sequence
0.0950000000	of arms
0.0950000000	of attraction
0.0950000000	of 3
0.0950000000	of infinite
0.0950000000	of improved
0.0950000000	of wasserstein
0.0950000000	of nearest
0.0950000000	of reliable
0.0950000000	of differential
0.0950000000	of 7
0.0950000000	of proximity
0.0950000000	of proximal
0.0950000000	of professional
0.0950000000	of composite
0.0950000000	of works
0.0950000000	more focused
0.0950000000	of abduction
0.0950000000	of simultaneous
0.0950000000	of biased
0.0950000000	of keypoints
0.0950000000	of expertise
0.0950000000	of allowing
0.0950000000	of summarizing
0.0950000000	of misclassification
0.0950000000	of comparative
0.0950000000	of replacing
0.0950000000	of healthy
0.0950000000	of multidimensional
0.0950000000	of processes
0.0950000000	of gray
0.0950000000	of implementation
0.0950000000	of huge
0.0950000000	of landmark
0.0950000000	of seed
0.0950000000	of car
0.0950000000	of labeling
0.0950000000	of constrained
0.0950000000	of reporting
0.0950000000	of minimization
0.0950000000	of 9
0.0950000000	of resources
0.0950000000	of cameras
0.0950000000	of normalized
0.0950000000	of transferring
0.0950000000	of updates
0.0950000000	of reproducing
0.0950000000	of anomalous
0.0950000000	of heavy
0.0950000000	of abnormalities
0.0950000000	of nonzero
0.0950000000	of autonomy
0.0950000000	of evidences
0.0950000000	of expression
0.0950000000	of univariate
0.0950000000	of equivalent
0.0950000000	of limitations
0.0950000000	of decisions
0.0950000000	of accurately
0.0950000000	of identification
0.0950000000	of textures
0.0950000000	of interpretation
0.0950000000	of laplacian
0.0950000000	of completely
0.0950000000	of membership
0.0950000000	of deriving
0.0950000000	given images
0.0950000000	of areas
0.0950000000	given problem
0.0950000000	of grayscale
0.0950000000	of market
0.0950000000	of dark
0.0950000000	of actors
0.0950000000	of feasible
0.0950000000	of implicit
0.0950000000	of histopathological
0.0950000000	of photometric
0.0950000000	of distances
0.0950000000	of operation
0.0950000000	of reduced
0.0950000000	of estimated
0.0950000000	of mutually
0.0950000000	of grouping
0.0950000000	given test
0.0950000000	of randomness
0.0950000000	of academic
0.0950000000	of cultural
0.0950000000	of approximations
0.0950000000	of 20
0.0950000000	of formulas
0.0950000000	of competitive
0.0950000000	of personalized
0.0950000000	of measuring
0.0950000000	more details
0.0950000000	of smart
0.0950000000	of tools
0.0950000000	of crowds
0.0950000000	of expressions
0.0950000000	of satisfying
0.0950000000	of dependent
0.0950000000	of mini
0.0950000000	of asynchronous
0.0950000000	of controlling
0.0950000000	of advantages
0.0950000000	of stored
0.0950000000	of pac
0.0950000000	of stationary
0.0950000000	of directional
0.0950000000	of mistakes
0.0950000000	of bioinformatics
0.0950000000	of separable
0.0950000000	of calculating
0.0950000000	of accurate
0.0950000000	of robotics
0.0950000000	of selective
0.0950000000	of spherical
0.0950000000	of 90
0.0950000000	of rows
0.0950000000	of database
0.0950000000	of embedded
0.0950000000	full resolution
0.0950000000	of direct
0.0950000000	of central
0.0950000000	of curvature
0.0950000000	become widely
0.0950000000	of l2
0.0950000000	of 64
0.0950000000	of integer
0.0950000000	of stacked
0.0950000000	of studying
0.0950000000	more recent
0.0950000000	very interesting
0.0950000000	of head
0.0950000000	of complementary
0.0950000000	more classical
0.0950000000	of link
0.0950000000	of sensing
0.0950000000	of implementing
0.0950000000	of segmenting
0.0950000000	of homogeneous
0.0950000000	of histogram
0.0950000000	of constant
0.0950000000	via cross
0.0950000000	of walking
0.0950000000	of resolution
0.0950000000	of scalable
0.0950000000	of polish
0.0950000000	of numbers
0.0950000000	of controlled
0.0950000000	of personal
0.0950000000	of frequencies
0.0950000000	of decentralized
0.0950000000	of observable
0.0950000000	of arc
0.0950000000	of reflection
0.0950000000	of advanced
0.0950000000	of material
0.0950000000	of mining
0.0950000000	given image
0.0950000000	of production
0.0950000000	of satisfiability
0.0950000000	only visual
0.0950000000	of india
0.0950000000	given noisy
0.0950000000	of macro
0.0950000000	of mathematics
0.0950000000	of dataset
0.0950000000	of 200
0.0950000000	given object
0.0950000000	but related
0.0950000000	of commonly
0.0950000000	of temperature
0.0950000000	only partial
0.0950000000	of similarities
0.0950000000	given constraints
0.0950000000	given finite
0.0950000000	of modular
0.0950000000	more generalized
0.0950000000	only achieve
0.0950000000	of digitized
0.0950000000	of location
0.0950000000	of participants
0.0950000000	of synchronous
0.0950000000	of paired
0.0950000000	of lidar
0.0950000000	of architectures
0.0950000000	of character
0.0950000000	but highly
0.0950000000	but unlike
0.0950000000	but important
0.0950000000	but powerful
0.0950000000	but existing
0.0950000000	but challenging
0.0950000000	but requires
0.0950000000	but possibly
0.0950000000	of volumetric
0.0950000000	of primitive
0.0950000000	of bi
0.0950000000	of tokens
0.0950000000	of required
0.0950000000	but lack
0.0950000000	of hard
0.0950000000	of plants
0.0950000000	full text
0.0950000000	of moderate
0.0950000000	of axioms
0.0950000000	given evidence
0.0950000000	but unknown
0.0950000000	particularly efficient
0.0950000000	only 1
0.0950000000	only 3
0.0950000000	only linear
0.0950000000	only capture
0.0950000000	only approximately
0.0950000000	more samples
0.0950000000	of ways
0.0950000000	of extensive
0.0950000000	of activations
0.0950000000	more reliably
0.0950000000	only handle
0.0950000000	more light
0.0950000000	computer games
0.0950000000	very basic
0.0950000000	given task
0.0950000000	of magnitudes
0.0950000000	top 3
0.0950000000	via random
0.0950000000	no assumption
0.0950000000	via fully
0.0950000000	via bayesian
0.0950000000	of underlying
0.0950000000	more coherent
0.0950000000	of origin
0.0950000000	more words
0.0950000000	of substantial
0.0950000000	of atari
0.0950000000	of viewing
0.0950000000	more refined
0.0950000000	via stochastic
0.0950000000	more promising
0.0950000000	given sample
0.0950000000	of evidential
0.0950000000	more systematic
0.0950000000	more widely
0.0950000000	more expensive
0.0950000000	more complete
0.0950000000	more rapidly
0.0950000000	more flexibility
0.0950000000	more reasonable
0.0950000000	more variables
0.0950000000	more computational
0.0950000000	more generic
0.0950000000	of behavioral
0.0950000000	enough information
0.0950000000	of gpu
0.0950000000	of oriented
0.0950000000	of frames
0.0950000000	of exploring
0.0950000000	of performance
0.0950000000	of increased
0.0950000000	full information
0.0950000000	of squared
0.0950000000	of dependence
0.0950000000	of hashing
0.0950000000	of modified
0.0950000000	of imagenet
0.0950000000	of permutations
0.0950000000	of universality
0.0950000000	of overlapping
0.0950000000	of rich
0.0950000000	of fmri
0.0950000000	of 5
0.0950000000	of level
0.0950000000	of interactive
0.0950000000	of randomly
0.0950000000	of abstraction
0.0950000000	of classic
0.0950000000	of issues
0.0950000000	of descriptors
0.0950000000	of lazy
0.0950000000	of malicious
0.0950000000	of solar
0.0950000000	given location
0.0950000000	of receptive
0.0950000000	via experiments
0.0950000000	of scenes
0.0950000000	of overlap
0.0950000000	via learning
0.0950000000	of micro
0.0950000000	of planar
0.0950000000	of mixing
0.0950000000	of rationality
0.0950000000	of distinguishing
0.0950000000	of recommending
0.0950000000	no effect
0.0950000000	of simulations
0.0950000000	of retrieving
0.0950000000	of episodic
0.0950000000	via convex
0.0950000000	via iterative
0.0950000000	of kronecker
0.0950000000	of bregman
0.0950000000	of electrical
0.0950000000	of outdoor
0.0950000000	of viewpoints
0.0950000000	of 85
0.0950000000	of continuity
0.0950000000	of annotating
0.0950000000	i discuss
0.0950000000	given input
0.0950000000	of horn
0.0950000000	via online
0.0950000000	no significant
0.0950000000	via sparse
0.0950000000	via group
0.0950000000	via matrix
0.0950000000	via latent
0.0950000000	via gradient
0.0950000000	via multi
0.0950000000	via simulation
0.0950000000	via kernel
0.0950000000	via adaptive
0.0950000000	more naturally
0.0950000000	via hierarchical
0.0950000000	via probabilistic
0.0950000000	via neural
0.0950000000	via joint
0.0950000000	via multiple
0.0950000000	via structured
0.0950000000	via variational
0.0950000000	via graph
0.0950000000	via semantic
0.0950000000	via local
0.0950000000	via extensive
0.0950000000	via unsupervised
0.0950000000	more structured
0.0950000000	via numerical
0.0950000000	co design
0.0950000000	an organization
0.0950000000	to remain
0.0950000000	an implemented
0.0950000000	to basic
0.0950000000	to influence
0.0950000000	these groups
0.0950000000	an elastic
0.0950000000	to receive
0.0950000000	often performed
0.0950000000	to edge
0.0950000000	an acceleration
0.0950000000	to 2
0.0950000000	to larger
0.0950000000	an arbitrarily
0.0950000000	q space
0.0950000000	any manual
0.0950000000	these events
0.0950000000	allow efficient
0.0950000000	an epistemic
0.0950000000	to raw
0.0950000000	give examples
0.0950000000	little research
0.0950000000	little data
0.0950000000	to handling
0.0950000000	to trade
0.0950000000	to errors
0.0950000000	an aid
0.0950000000	an intersection
0.0950000000	an analogy
0.0950000000	to situations
0.0950000000	an intuition
0.0950000000	to type
0.0950000000	while outperforming
0.0950000000	an article
0.0950000000	these technologies
0.0950000000	these efforts
0.0950000000	these definitions
0.0950000000	these lines
0.0950000000	an urban
0.0950000000	q networks
0.0950000000	these complex
0.0950000000	to actively
0.0950000000	an english
0.0950000000	an interaction
0.0950000000	to pattern
0.0950000000	to potentially
0.0950000000	these reasons
0.0950000000	any optimization
0.0950000000	any information
0.0950000000	these phenomena
0.0950000000	any individual
0.0950000000	any problem
0.0950000000	these heuristics
0.0950000000	any assumptions
0.0950000000	any image
0.0950000000	any point
0.0950000000	any algorithm
0.0950000000	any distribution
0.0950000000	any constant
0.0950000000	any fixed
0.0950000000	any user
0.0950000000	any supervision
0.0950000000	any human
0.0950000000	any single
0.0950000000	any external
0.0950000000	any finite
0.0950000000	any input
0.0950000000	any deep
0.0950000000	any local
0.0950000000	any state
0.0950000000	any convex
0.0950000000	any training
0.0950000000	any classifier
0.0950000000	any data
0.0950000000	any model
0.0950000000	any target
0.0950000000	any change
0.0950000000	any explicit
0.0950000000	to probe
0.0950000000	to quantitatively
0.0950000000	any domain
0.0950000000	these tests
0.0950000000	any arbitrary
0.0950000000	these procedures
0.0950000000	these recent
0.0950000000	to realistic
0.0950000000	thus obtained
0.0950000000	these feature
0.0950000000	thus improving
0.0950000000	to release
0.0950000000	these theories
0.0950000000	to initialization
0.0950000000	an l1
0.0950000000	any labeled
0.0950000000	these approximations
0.0950000000	to structure
0.0950000000	any loss
0.0950000000	these measurements
0.0950000000	give algorithms
0.0950000000	re trained
0.0950000000	these simple
0.0950000000	these provide
0.0950000000	these values
0.0950000000	to earlier
0.0950000000	to 10
0.0950000000	although deep
0.0950000000	these connections
0.0950000000	give empirical
0.0950000000	to 8
0.0950000000	an annotation
0.0950000000	while improving
0.0950000000	while exploiting
0.0950000000	to robotic
0.0950000000	self representation
0.0950000000	self similar
0.0950000000	to benchmark
0.0950000000	to experiment
0.0950000000	to competing
0.0950000000	these multi
0.0950000000	although recent
0.0950000000	any task
0.0950000000	any neural
0.0950000000	an asymptotically
0.0950000000	to reinforce
0.0950000000	to incorporating
0.0950000000	thus reducing
0.0950000000	to pre
0.0950000000	any significant
0.0950000000	often called
0.0950000000	these facts
0.0950000000	often employed
0.0950000000	often required
0.0950000000	often unknown
0.0950000000	often produces
0.0950000000	an utterance
0.0950000000	to dimensionality
0.0950000000	to beat
0.0950000000	while running
0.0950000000	to considerably
0.0950000000	to optimally
0.0950000000	any real
0.0950000000	to depict
0.0950000000	to reformulate
0.0950000000	these biases
0.0950000000	to detecting
0.0950000000	to mention
0.0950000000	to 11
0.0950000000	to scan
0.0950000000	an examination
0.0950000000	to logical
0.0950000000	to transformations
0.0950000000	to 16
0.0950000000	to digital
0.0950000000	to modern
0.0950000000	to making
0.0950000000	to successful
0.0950000000	to improvements
0.0950000000	to 7
0.0950000000	to slow
0.0950000000	to dramatically
0.0950000000	an occlusion
0.0950000000	while generating
0.0950000000	to information
0.0950000000	to agree
0.0950000000	to rate
0.0950000000	an intractable
0.0950000000	to iterative
0.0950000000	to regular
0.0950000000	an inefficient
0.0950000000	to visually
0.0950000000	to schedule
0.0950000000	to automated
0.0950000000	an effect
0.0950000000	to implicitly
0.0950000000	to limited
0.0950000000	an interpolation
0.0950000000	to discuss
0.0950000000	possible ways
0.0950000000	to permit
0.0950000000	these deep
0.0950000000	these elements
0.0950000000	an ann
0.0950000000	to accept
0.0950000000	to infty
0.0950000000	often provide
0.0950000000	these sources
0.0950000000	these advances
0.0950000000	an idea
0.0950000000	any natural
0.0950000000	these contexts
0.0950000000	to huge
0.0950000000	to interactively
0.0950000000	to recursively
0.0950000000	often produce
0.0950000000	to greatly
0.0950000000	value estimation
0.0950000000	often represented
0.0950000000	these low
0.0950000000	to switch
0.0950000000	to autonomous
0.0950000000	any desired
0.0950000000	to interpolate
0.0950000000	to inter
0.0950000000	mean accuracy
0.0950000000	to biased
0.0950000000	to temporally
0.0950000000	to uncertainty
0.0950000000	to subspace
0.0950000000	to iteratively
0.0950000000	these points
0.0950000000	an emph
0.0950000000	to reliably
0.0950000000	to screen
0.0950000000	to begin
0.0950000000	to customers
0.0950000000	an audio
0.0950000000	to code
0.0950000000	to optimizing
0.0950000000	to provably
0.0950000000	an identical
0.0950000000	to locally
0.0950000000	to modelling
0.0950000000	to alter
0.0950000000	to running
0.0950000000	to polynomial
0.0950000000	to expose
0.0950000000	an anomaly
0.0950000000	an expanded
0.0950000000	an autoregressive
0.0950000000	to infinite
0.0950000000	to structures
0.0950000000	to display
0.0950000000	to randomly
0.0950000000	an impressive
0.0950000000	to coordinate
0.0950000000	an observer
0.0950000000	an operational
0.0950000000	possible improvements
0.0950000000	to optimization
0.0950000000	give experimental
0.0950000000	little information
0.0950000000	to intelligently
0.0950000000	to affect
0.0950000000	an educational
0.0950000000	to 25
0.0950000000	to reuse
0.0950000000	to smooth
0.0950000000	to developing
0.0950000000	to industrial
0.0950000000	to motivate
0.0950000000	to spatially
0.0950000000	to inaccurate
0.0950000000	to methods
0.0950000000	an initialization
0.0950000000	to generalized
0.0950000000	to bound
0.0950000000	to bayes
0.0950000000	to offline
0.0950000000	to ranking
0.0950000000	to autonomously
0.0950000000	to complex
0.0950000000	often outperform
0.0950000000	to correlate
0.0950000000	an unsolved
0.0950000000	to single
0.0950000000	to super
0.0950000000	to shallow
0.0950000000	to applications
0.0950000000	to probabilistic
0.0950000000	to naturally
0.0950000000	an informed
0.0950000000	an attentional
0.0950000000	to posterior
0.0950000000	to topic
0.0950000000	to semantics
0.0950000000	to additional
0.0950000000	to smaller
0.0950000000	to involve
0.0950000000	to count
0.0950000000	to improved
0.0950000000	to event
0.0950000000	to proceed
0.0950000000	to continue
0.0950000000	to facial
0.0950000000	to happen
0.0950000000	to analyzing
0.0950000000	to adaptive
0.0950000000	to lack
0.0950000000	to simply
0.0950000000	to initiate
0.0950000000	to incrementally
0.0950000000	to missing
0.0950000000	to failure
0.0950000000	to substantially
0.0950000000	to simulated
0.0950000000	to drastically
0.0950000000	to sampling
0.0950000000	to respect
0.0950000000	to sequentially
0.0950000000	to trace
0.0950000000	to conventional
0.0950000000	to precisely
0.0950000000	to exchange
0.0950000000	often limited
0.0950000000	to numerical
0.0950000000	to input
0.0950000000	to important
0.0950000000	to outline
0.0950000000	to behave
0.0950000000	to suboptimal
0.0950000000	to external
0.0950000000	to gradient
0.0950000000	to win
0.0950000000	to exist
0.0950000000	to fixed
0.0950000000	an hour
0.0950000000	to view
0.0950000000	to approximately
0.0950000000	to outlier
0.0950000000	to minimizing
0.0950000000	to computationally
0.0950000000	to objects
0.0950000000	an execution
0.0950000000	to direct
0.0950000000	an extent
0.0950000000	to german
0.0950000000	to consistently
0.0950000000	an insight
0.0950000000	to medium
0.0950000000	to detection
0.0950000000	to feed
0.0950000000	to surpass
0.0950000000	to adequately
0.0950000000	to spectral
0.0950000000	to multimodal
0.0950000000	to medical
0.0950000000	to consistent
0.0950000000	an assignment
0.0950000000	to ignore
0.0950000000	an added
0.0950000000	to quadratic
0.0950000000	to achieving
0.0950000000	to 30
0.0950000000	to statistical
0.0950000000	to inverse
0.0950000000	to batch
0.0950000000	to maximally
0.0950000000	to nonlinear
0.0950000000	an affinity
0.0950000000	to attacks
0.0950000000	to ground
0.0950000000	to higher
0.0950000000	to low
0.0950000000	to intrinsic
0.0950000000	to accurate
0.0950000000	to sort
0.0950000000	to linear
0.0950000000	to lower
0.0950000000	to compete
0.0950000000	to explicit
0.0950000000	to 12
0.0950000000	an operation
0.0950000000	to estimating
0.0950000000	to continuously
0.0950000000	mean error
0.0950000000	to weight
0.0950000000	to 3
0.0950000000	to french
0.0950000000	to natural
0.0950000000	to selectively
0.0950000000	an extrinsic
0.0950000000	often perform
0.0950000000	to recurrent
0.0950000000	to patient
0.0950000000	to overfitting
0.0950000000	to unknown
0.0950000000	to designing
0.0950000000	to humans
0.0950000000	to unsupervised
0.0950000000	an obvious
0.0950000000	thus provide
0.0950000000	to approach
0.0950000000	to researchers
0.0950000000	to corroborate
0.0950000000	to independent
0.0950000000	to carefully
0.0950000000	to order
0.0950000000	to svm
0.0950000000	these previous
0.0950000000	to improvement
0.0950000000	to conclude
0.0950000000	while learning
0.0950000000	to bayesian
0.0950000000	to evaluating
0.0950000000	an inter
0.0950000000	to decision
0.0950000000	to exact
0.0950000000	to relevant
0.0950000000	to arrive
0.0950000000	to bootstrap
0.0950000000	to log
0.0950000000	to ordinary
0.0950000000	to partial
0.0950000000	to modeling
0.0950000000	to changing
0.0950000000	to texts
0.0950000000	to shift
0.0950000000	to partially
0.0950000000	to coarse
0.0950000000	an anisotropic
0.0950000000	to completely
0.0950000000	to images
0.0950000000	an attentive
0.0950000000	an ambiguous
0.0950000000	to generative
0.0950000000	to collectively
0.0950000000	an i.i.d
0.0950000000	an intensive
0.0950000000	to lift
0.0950000000	an appropriately
0.0950000000	to 4
0.0950000000	an easily
0.0950000000	to settings
0.0950000000	an art
0.0950000000	to dynamic
0.0950000000	an equation
0.0950000000	an ordering
0.0950000000	to differences
0.0950000000	to generalise
0.0950000000	to physical
0.0950000000	to joint
0.0950000000	to highly
0.0950000000	an ant
0.0950000000	to efficient
0.0950000000	to favor
0.0950000000	an asp
0.0950000000	to challenging
0.0950000000	an inconsistent
0.0950000000	to flexibly
0.0950000000	to individual
0.0950000000	to benefit
0.0950000000	an indoor
0.0950000000	to recall
0.0950000000	an equally
0.0950000000	to established
0.0950000000	to possess
0.0950000000	to obtaining
0.0950000000	to 100
0.0950000000	to degrade
0.0950000000	to outliers
0.0950000000	to 50
0.0950000000	to narrow
0.0950000000	to general
0.0950000000	to typical
0.0950000000	an elaborate
0.0950000000	to concept
0.0950000000	to enjoy
0.0950000000	to formally
0.0950000000	to contribute
0.0950000000	often computationally
0.0950000000	to reduced
0.0950000000	to positive
0.0950000000	an exemplar
0.0950000000	to global
0.0950000000	to multivariate
0.0950000000	to occlusion
0.0950000000	an np
0.0950000000	to future
0.0950000000	to semantically
0.0950000000	to bias
0.0950000000	thus requires
0.0950000000	an update
0.0950000000	to surface
0.0950000000	to substantial
0.0950000000	to program
0.0950000000	to pursue
0.0950000000	to clusters
0.0950000000	to continuous
0.0950000000	to report
0.0950000000	an inductive
0.0950000000	to millions
0.0950000000	an extractive
0.0950000000	to combinatorial
0.0950000000	to actions
0.0950000000	to entities
0.0950000000	to synthetic
0.0950000000	an extreme
0.0950000000	to belief
0.0950000000	to greater
0.0950000000	to expect
0.0950000000	to building
0.0950000000	to past
0.0950000000	an actor
0.0950000000	to baseline
0.0950000000	to manually
0.0950000000	to 9
0.0950000000	an ontological
0.0950000000	to patients
0.0950000000	to additive
0.0950000000	to increasing
0.0950000000	an inherently
0.0950000000	an outcome
0.0950000000	to strong
0.0950000000	to improving
0.0950000000	to 0
0.0950000000	to perceive
0.0950000000	to significant
0.0950000000	to current
0.0950000000	to stay
0.0950000000	to providing
0.0950000000	to base
0.0950000000	an abductive
0.0950000000	to qualitative
0.0950000000	an l2
0.0950000000	to skip
0.0950000000	to constraints
0.0950000000	to score
0.0950000000	to post
0.0950000000	an adapted
0.0950000000	to factor
0.0950000000	to experimentally
0.0950000000	an affine
0.0950000000	to 6
0.0950000000	an iteratively
0.0950000000	to addressing
0.0950000000	to experimental
0.0950000000	an aggregate
0.0950000000	while neural
0.0950000000	any underlying
0.0950000000	to cross
0.0950000000	an approximated
0.0950000000	to videos
0.0950000000	to multi
0.0950000000	to identifying
0.0950000000	to structural
0.0950000000	an eye
0.0950000000	to databases
0.0950000000	an updated
0.0950000000	to couple
0.0950000000	to strengthen
0.0950000000	to arbitrarily
0.0950000000	to propositional
0.0950000000	to 20
0.0950000000	to force
0.0950000000	to deterministic
0.0950000000	to mobile
0.0950000000	an outdoor
0.0950000000	to hardware
0.0950000000	to double
0.0950000000	to observations
0.0950000000	to split
0.0950000000	to phrase
0.0950000000	to early
0.0950000000	to require
0.0950000000	to smart
0.0950000000	to computational
0.0950000000	an identification
0.0950000000	an embodied
0.0950000000	an author
0.0950000000	to popular
0.0950000000	an automatically
0.0950000000	to recent
0.0950000000	to fail
0.0950000000	to imperfect
0.0950000000	to superior
0.0950000000	an aggregation
0.0950000000	these samples
0.0950000000	to queries
0.0950000000	to sparsity
0.0950000000	an obstacle
0.0950000000	to light
0.0950000000	to e.g
0.0950000000	to stochastic
0.0950000000	to common
0.0950000000	to logic
0.0950000000	an artifact
0.0950000000	an ordinary
0.0950000000	any learning
0.0950000000	to suggest
0.0950000000	to hard
0.0950000000	an orthogonal
0.0950000000	to empirically
0.0950000000	an observable
0.0950000000	to vary
0.0950000000	to extremely
0.0950000000	to pose
0.0950000000	to major
0.0950000000	to replicate
0.0950000000	to 40
0.0950000000	to questions
0.0950000000	to studying
0.0950000000	to severe
0.0950000000	to sentences
0.0950000000	an option
0.0950000000	to reverse
0.0950000000	to start
0.0950000000	to closely
0.0950000000	to shape
0.0950000000	to grow
0.0950000000	to progressively
0.0950000000	an imbalanced
0.0950000000	an algebra
0.0950000000	often hard
0.0950000000	to maximum
0.0950000000	an equilibrium
0.0950000000	to actual
0.0950000000	to similarity
0.0950000000	to record
0.0950000000	to simple
0.0950000000	to convergence
0.0950000000	to progress
0.0950000000	an mcmc
0.0950000000	an index
0.0950000000	to inferring
0.0950000000	mean function
0.0950000000	to place
0.0950000000	to logarithmic
0.0950000000	to error
0.0950000000	thus learning
0.0950000000	to moving
0.0950000000	to leave
0.0950000000	to cut
0.0950000000	to extracting
0.0950000000	to statistically
0.0950000000	while making
0.0950000000	to parameter
0.0950000000	to block
0.0950000000	to soft
0.0950000000	value learning
0.0950000000	to close
0.0950000000	to lie
0.0950000000	to parallel
0.0950000000	to occur
0.0950000000	an 8
0.0950000000	to competitive
0.0950000000	to revisit
0.0950000000	to confirm
0.0950000000	to estimation
0.0950000000	to grasp
0.0950000000	to performance
0.0950000000	to instance
0.0950000000	to index
0.0950000000	to biological
0.0950000000	to scene
0.0950000000	to strongly
0.0950000000	to numerous
0.0950000000	to extreme
0.0950000000	to illumination
0.0950000000	often considered
0.0950000000	to head
0.0950000000	to discovering
0.0950000000	to geometric
0.0950000000	to cast
0.0950000000	to automatic
0.0950000000	to perturbations
0.0950000000	to seamlessly
0.0950000000	to concentrate
0.0950000000	to figure
0.0950000000	an inexact
0.0950000000	to uniform
0.0950000000	to unlabeled
0.0950000000	to formal
0.0950000000	often lack
0.0950000000	to domains
0.0950000000	an integral
0.0950000000	to classic
0.0950000000	to constant
0.0950000000	to supply
0.0950000000	to selecting
0.0950000000	to speed
0.0950000000	to practical
0.0950000000	to rule
0.0950000000	to correspond
0.0950000000	to gene
0.0950000000	an equal
0.0950000000	to content
0.0950000000	to diverse
0.0950000000	to turn
0.0950000000	to expert
0.0950000000	an internet
0.0950000000	an uncertain
0.0950000000	to fall
0.0950000000	to pass
0.0950000000	to sense
0.0950000000	to theoretical
0.0950000000	to reference
0.0950000000	to datasets
0.0950000000	to short
0.0950000000	to scaling
0.0950000000	an informative
0.0950000000	to drop
0.0950000000	to negative
0.0950000000	an iterated
0.0950000000	to review
0.0950000000	to cases
0.0950000000	to increased
0.0950000000	to public
0.0950000000	to research
0.0950000000	to function
0.0950000000	these effects
0.0950000000	to instantiate
0.0950000000	to sensor
0.0950000000	these predictions
0.0950000000	to testing
0.0950000000	to background
0.0950000000	to finite
0.0950000000	an eigenvalue
0.0950000000	to tag
0.0950000000	to space
0.0950000000	to similar
0.0950000000	to constitute
0.0950000000	to edges
0.0950000000	to machines
0.0950000000	to assume
0.0950000000	to contextual
0.0950000000	to hindi
0.0950000000	while taking
0.0950000000	to pay
0.0950000000	to occlusions
0.0950000000	these restrictions
0.0950000000	to performing
0.0950000000	an emergent
0.0950000000	an unmanned
0.0950000000	to showcase
0.0950000000	to repair
0.0950000000	an unified
0.0950000000	these challenging
0.0950000000	possible solution
0.0950000000	to infinity
0.0950000000	to compact
0.0950000000	while previous
0.0950000000	while traditional
0.0950000000	to emphasize
0.0950000000	to mark
0.0950000000	to hierarchical
0.0950000000	give theoretical
0.0950000000	an outline
0.0950000000	value pairs
0.0950000000	thus propose
0.0950000000	to scientific
0.0950000000	to poor
0.0950000000	to determining
0.0950000000	an optimistic
0.0950000000	to fast
0.0950000000	to faster
0.0950000000	to pairwise
0.0950000000	to predicting
0.0950000000	to fuzzy
0.0950000000	these learned
0.0950000000	to related
0.0950000000	to finding
0.0950000000	to great
0.0950000000	these analyses
0.0950000000	to condition
0.0950000000	an unstructured
0.0950000000	these fields
0.0950000000	to 15
0.0950000000	to 5
0.0950000000	to difficult
0.0950000000	to prior
0.0950000000	an analogous
0.0950000000	to false
0.0950000000	to promising
0.0950000000	to observed
0.0950000000	to 90
0.0950000000	to average
0.0950000000	to users
0.0950000000	to small
0.0950000000	to static
0.0950000000	to abstract
0.0950000000	to sum
0.0950000000	to appropriately
0.0950000000	to generating
0.0950000000	to overfit
0.0950000000	to varying
0.0950000000	to understanding
0.0950000000	any assumption
0.0950000000	these image
0.0950000000	these dependencies
0.0950000000	to gradually
0.0950000000	to nlp
0.0950000000	an influence
0.0950000000	value estimates
0.0950000000	to inputs
0.0950000000	to alternative
0.0950000000	to query
0.0950000000	to signal
0.0950000000	while training
0.0950000000	while maximizing
0.0950000000	these devices
0.0950000000	to constraint
0.0950000000	possible classes
0.0950000000	to counter
0.0950000000	while recent
0.0950000000	while producing
0.0950000000	while increasing
0.0950000000	while standard
0.0950000000	while significantly
0.0950000000	while conventional
0.0950000000	to emerge
0.0950000000	any pre
0.0950000000	while classical
0.0950000000	to market
0.0950000000	while obtaining
0.0950000000	these scenarios
0.0950000000	thus significantly
0.0950000000	these large
0.0950000000	to active
0.0950000000	these important
0.0950000000	these differences
0.0950000000	these aspects
0.0950000000	these advantages
0.0950000000	these formulations
0.0950000000	these modules
0.0950000000	these environments
0.0950000000	these sets
0.0950000000	these mechanisms
0.0950000000	these concerns
0.0950000000	these costs
0.0950000000	these descriptors
0.0950000000	possible world
0.0950000000	these topics
0.0950000000	these descriptions
0.0950000000	these extensions
0.0950000000	these existing
0.0950000000	these variations
0.0950000000	mean values
0.0950000000	these schemes
0.0950000000	these performance
0.0950000000	these benchmarks
0.0950000000	these categories
0.0950000000	these proposals
0.0950000000	these annotations
0.0950000000	these hypotheses
0.0950000000	these developments
0.0950000000	these optimization
0.0950000000	these sensors
0.0950000000	these resources
0.0950000000	q function
0.0950000000	to overlap
0.0950000000	often exhibit
0.0950000000	possible future
0.0950000000	possible states
0.0950000000	these estimates
0.0950000000	these transformations
0.0950000000	to undergo
0.0950000000	these benefits
0.0950000000	these steps
0.0950000000	to effective
0.0950000000	to previous
0.0950000000	to big
0.0950000000	an easier
0.0950000000	to sequences
0.0950000000	to question
0.0950000000	these insights
0.0950000000	these situations
0.0950000000	possible values
0.0950000000	these examples
0.0950000000	these clusters
0.0950000000	these choices
0.0950000000	an element
0.0950000000	value based
0.0950000000	value decomposition
0.0950000000	own data
0.0950000000	these probabilities
0.0950000000	various algorithms
0.0950000000	various settings
0.0950000000	between views
0.0950000000	between variables
0.0950000000	time data
0.0950000000	between multiple
0.0950000000	example mining
0.0950000000	example images
0.0950000000	between information
0.0950000000	example applications
0.0950000000	allows easy
0.0950000000	containing multiple
0.0950000000	further exploration
0.0950000000	time invariant
0.0950000000	time required
0.0950000000	between real
0.0950000000	between observations
0.0950000000	by passing
0.0950000000	by aligning
0.0950000000	by requiring
0.0950000000	good representation
0.0950000000	better match
0.0950000000	at 1
0.0950000000	by noise
0.0950000000	also implemented
0.0950000000	by merging
0.0950000000	by enhancing
0.0950000000	by pruning
0.0950000000	also takes
0.0950000000	time online
0.0950000000	by offering
0.0950000000	by standard
0.0950000000	by high
0.0950000000	good empirical
0.0950000000	also demonstrated
0.0950000000	by 6
0.0950000000	better result
0.0950000000	by previous
0.0950000000	between text
0.0950000000	between existing
0.0950000000	further exploit
0.0950000000	further analyze
0.0950000000	between models
0.0950000000	between source
0.0950000000	time memory
0.0950000000	between learning
0.0950000000	further reduce
0.0950000000	various sources
0.0950000000	time method
0.0950000000	between 0
0.0950000000	time processing
0.0950000000	t test
0.0950000000	between related
0.0950000000	time budget
0.0950000000	between classes
0.0950000000	between patients
0.0950000000	between probability
0.0950000000	time speed
0.0950000000	time temporal
0.0950000000	time diffusion
0.0950000000	time constant
0.0950000000	time ordered
0.0950000000	time based
0.0950000000	time analysis
0.0950000000	time independent
0.0950000000	time strategy
0.0950000000	time video
0.0950000000	time sensitive
0.0950000000	time algorithm
0.0950000000	time i.e
0.0950000000	time 2
0.0950000000	time prediction
0.0950000000	time estimation
0.0950000000	time constraints
0.0950000000	time distributions
0.0950000000	time inference
0.0950000000	further prove
0.0950000000	time critical
0.0950000000	time deep
0.0950000000	time needed
0.0950000000	time requirements
0.0950000000	time point
0.0950000000	between neurons
0.0950000000	time performance
0.0950000000	time heuristic
0.0950000000	time efficient
0.0950000000	by scaling
0.0950000000	also proposes
0.0950000000	by randomly
0.0950000000	time computation
0.0950000000	also design
0.0950000000	also outperform
0.0950000000	between exploration
0.0950000000	by cnn
0.0950000000	also extends
0.0950000000	by clustering
0.0950000000	by 50
0.0950000000	good initial
0.0950000000	good model
0.0950000000	between regions
0.0950000000	between sets
0.0950000000	example application
0.0950000000	between computational
0.0950000000	also studied
0.0950000000	also requires
0.0950000000	by 20
0.0950000000	also performs
0.0950000000	also improves
0.0950000000	good models
0.0950000000	good computational
0.0950000000	good result
0.0950000000	by recognizing
0.0950000000	by pre
0.0950000000	good classification
0.0950000000	good representations
0.0950000000	good recognition
0.0950000000	good visual
0.0950000000	good predictive
0.0950000000	good approximation
0.0950000000	good properties
0.0950000000	between inputs
0.0950000000	by low
0.0950000000	good convergence
0.0950000000	time learning
0.0950000000	also improved
0.0950000000	by recursively
0.0950000000	further progress
0.0950000000	also reduces
0.0950000000	by classifying
0.0950000000	by discussing
0.0950000000	also obtained
0.0950000000	also helps
0.0950000000	by conditioning
0.0950000000	by artificially
0.0950000000	by artificial
0.0950000000	by automatic
0.0950000000	by automatically
0.0950000000	further establish
0.0950000000	between events
0.0950000000	time space
0.0950000000	between terms
0.0950000000	time applications
0.0950000000	time evolving
0.0950000000	further improving
0.0950000000	by synthesis
0.0950000000	further applications
0.0950000000	further processing
0.0950000000	further developed
0.0950000000	further validate
0.0950000000	further discuss
0.0950000000	further increase
0.0950000000	further apply
0.0950000000	by checking
0.0950000000	by geometric
0.0950000000	by composing
0.0950000000	by discovering
0.0950000000	also contribute
0.0950000000	by manually
0.0950000000	by producing
0.0950000000	also hold
0.0950000000	by stacking
0.0950000000	by carrying
0.0950000000	also produces
0.0950000000	at learning
0.0950000000	also increase
0.0950000000	also evaluated
0.0950000000	also reported
0.0950000000	also highly
0.0950000000	between items
0.0950000000	also offers
0.0950000000	also validate
0.0950000000	by rendering
0.0950000000	also supports
0.0950000000	by 15
0.0950000000	by simulation
0.0950000000	good features
0.0950000000	by characterizing
0.0950000000	at understanding
0.0950000000	by appropriately
0.0950000000	by detection
0.0950000000	by analysing
0.0950000000	by 30
0.0950000000	also highlight
0.0950000000	between labels
0.0950000000	by sparse
0.0950000000	by exhibiting
0.0950000000	by polynomial
0.0950000000	by forming
0.0950000000	by conventional
0.0950000000	by translating
0.0950000000	by manipulating
0.0950000000	by mixing
0.0950000000	by describing
0.0950000000	by binary
0.0950000000	by encoding
0.0950000000	by computational
0.0950000000	by viewing
0.0950000000	by projecting
0.0950000000	by semantic
0.0950000000	by feature
0.0950000000	by sequentially
0.0950000000	by tracking
0.0950000000	by applications
0.0950000000	by complex
0.0950000000	by updating
0.0950000000	by linking
0.0950000000	by dynamically
0.0950000000	by highlighting
0.0950000000	by monitoring
0.0950000000	by converting
0.0950000000	by existing
0.0950000000	by hand
0.0950000000	by global
0.0950000000	by em
0.0950000000	by linear
0.0950000000	by post
0.0950000000	by fully
0.0950000000	by direct
0.0950000000	by local
0.0950000000	by product
0.0950000000	by noisy
0.0950000000	by backpropagation
0.0950000000	by thresholding
0.0950000000	by real
0.0950000000	by interpreting
0.0950000000	by prior
0.0950000000	also obtain
0.0950000000	by setting
0.0950000000	by evolving
0.0950000000	by recurrent
0.0950000000	by joint
0.0950000000	by adversarial
0.0950000000	by encouraging
0.0950000000	by drawing
0.0950000000	by similar
0.0950000000	by recent
0.0950000000	also implement
0.0950000000	by multi
0.0950000000	by machines
0.0950000000	by achieving
0.0950000000	by spatial
0.0950000000	by connecting
0.0950000000	by visualizing
0.0950000000	by random
0.0950000000	by maintaining
0.0950000000	by classical
0.0950000000	by 2
0.0950000000	by robust
0.0950000000	by principal
0.0950000000	also improve
0.0950000000	by quantifying
0.0950000000	by biological
0.0950000000	by simple
0.0950000000	between input
0.0950000000	by systematically
0.0950000000	at large
0.0950000000	also identify
0.0950000000	by manual
0.0950000000	between low
0.0950000000	between observed
0.0950000000	also achieves
0.0950000000	between groups
0.0950000000	by large
0.0950000000	also explain
0.0950000000	by alternating
0.0950000000	by 3
0.0950000000	by nature
0.0950000000	allows efficient
0.0950000000	allows fast
0.0950000000	allows training
0.0950000000	also suggests
0.0950000000	between model
0.0950000000	by referring
0.0950000000	by ranking
0.0950000000	also included
0.0950000000	by weighted
0.0950000000	by efficiently
0.0950000000	by preserving
0.0950000000	by kernel
0.0950000000	by adaptive
0.0950000000	also achieve
0.0950000000	further explore
0.0950000000	by similarity
0.0950000000	between positive
0.0950000000	by seeking
0.0950000000	by reconstructing
0.0950000000	by simultaneously
0.0950000000	also theoretically
0.0950000000	by bayesian
0.0950000000	by determining
0.0950000000	by keeping
0.0950000000	within images
0.0950000000	further speed
0.0950000000	also incorporate
0.0950000000	by successfully
0.0950000000	by deploying
0.0950000000	at present
0.0950000000	by matching
0.0950000000	also employ
0.0950000000	by genetic
0.0950000000	also include
0.0950000000	by tuning
0.0950000000	allows learning
0.0950000000	various layers
0.0950000000	by software
0.0950000000	by operating
0.0950000000	by visual
0.0950000000	between training
0.0950000000	between agents
0.0950000000	between states
0.0950000000	also describes
0.0950000000	between vertices
0.0950000000	time frame
0.0950000000	by properly
0.0950000000	at word
0.0950000000	by selectively
0.0950000000	also address
0.0950000000	also important
0.0950000000	by iterative
0.0950000000	by statistical
0.0950000000	also significantly
0.0950000000	by data
0.0950000000	also empirically
0.0950000000	further present
0.0950000000	at increasing
0.0950000000	between network
0.0950000000	between brain
0.0950000000	time systems
0.0950000000	by individual
0.0950000000	by construction
0.0950000000	by unsupervised
0.0950000000	by structured
0.0950000000	good solution
0.0950000000	by objects
0.0950000000	between high
0.0950000000	by modern
0.0950000000	by working
0.0950000000	also learns
0.0950000000	by default
0.0950000000	by fast
0.0950000000	by current
0.0950000000	by 10
0.0950000000	various factors
0.0950000000	also analyzed
0.0950000000	also considered
0.0950000000	by incrementally
0.0950000000	better recognition
0.0950000000	by convex
0.0950000000	by partitioning
0.0950000000	also learn
0.0950000000	better choice
0.0950000000	by averaging
0.0950000000	by segmenting
0.0950000000	better policies
0.0950000000	by 8
0.0950000000	also define
0.0950000000	by comparison
0.0950000000	by analogy
0.0950000000	at producing
0.0950000000	also effective
0.0950000000	also easily
0.0950000000	between pixels
0.0950000000	between users
0.0950000000	by filtering
0.0950000000	between individuals
0.0950000000	between deep
0.0950000000	also conducted
0.0950000000	by numerical
0.0950000000	by traditional
0.0950000000	by independent
0.0950000000	by gaussian
0.0950000000	better solutions
0.0950000000	by single
0.0950000000	also observed
0.0950000000	also tested
0.0950000000	by obtaining
0.0950000000	between clusters
0.0950000000	by coupling
0.0950000000	by including
0.0950000000	by small
0.0950000000	also exhibits
0.0950000000	by graph
0.0950000000	by bringing
0.0950000000	between image
0.0950000000	further evaluate
0.0950000000	between instances
0.0950000000	within large
0.0950000000	between elements
0.0950000000	by grouping
0.0950000000	time dynamic
0.0950000000	also yields
0.0950000000	also generate
0.0950000000	various network
0.0950000000	between features
0.0950000000	also exhibit
0.0950000000	by stochastic
0.0950000000	between datasets
0.0950000000	between heterogeneous
0.0950000000	between entities
0.0950000000	between neural
0.0950000000	by assessing
0.0950000000	between video
0.0950000000	between nodes
0.0950000000	by 5
0.0950000000	between natural
0.0950000000	between target
0.0950000000	by classification
0.0950000000	100 datasets
0.0950000000	between samples
0.0950000000	by 1
0.0950000000	by design
0.0950000000	by continuous
0.0950000000	by external
0.0950000000	between sparse
0.0950000000	between synthetic
0.0950000000	by efficient
0.0950000000	by breaking
0.0950000000	by models
0.0950000000	by effectively
0.0950000000	by pooling
0.0950000000	by mining
0.0950000000	also increases
0.0950000000	various experiments
0.0950000000	various conditions
0.0950000000	by tree
0.0950000000	by modelling
0.0950000000	between fuzzy
0.0950000000	by controlling
0.0950000000	various benchmarks
0.0950000000	by propagating
0.0950000000	time evolution
0.0950000000	also discusses
0.0950000000	by ignoring
0.0950000000	at detecting
0.0950000000	between local
0.0950000000	also release
0.0950000000	between parts
0.0950000000	by multiple
0.0950000000	by moving
0.0950000000	by google
0.0950000000	by hierarchical
0.0950000000	also generates
0.0950000000	by spectral
0.0950000000	various image
0.0950000000	also examine
0.0950000000	also extended
0.0950000000	by latent
0.0950000000	by processing
0.0950000000	by enabling
0.0950000000	better training
0.0950000000	also experimentally
0.0950000000	by empirical
0.0950000000	within 1
0.0950000000	various datasets
0.0950000000	by inferring
0.0950000000	between domains
0.0950000000	by finite
0.0950000000	further develop
0.0950000000	various application
0.0950000000	between words
0.0950000000	also generalizes
0.0950000000	by bounding
0.0950000000	various classes
0.0950000000	also generalize
0.0950000000	by 18
0.0950000000	between 1
0.0950000000	better representations
0.0950000000	also performed
0.0950000000	better learning
0.0950000000	at inference
0.0950000000	at modeling
0.0950000000	at real
0.0950000000	by repeatedly
0.0950000000	at identifying
0.0950000000	at image
0.0950000000	also test
0.0950000000	time information
0.0950000000	also reveals
0.0950000000	various metrics
0.0950000000	also confirm
0.0950000000	between human
0.0950000000	between individual
0.0950000000	various extensions
0.0950000000	between layers
0.0950000000	further reduced
0.0950000000	at solving
0.0950000000	at https
0.0950000000	at lower
0.0950000000	at building
0.0950000000	at capturing
0.0950000000	at reducing
0.0950000000	at generating
0.0950000000	at higher
0.0950000000	at finding
0.0950000000	at varying
0.0950000000	various text
0.0950000000	at testing
0.0950000000	at predicting
0.0950000000	at discovering
0.0950000000	at providing
0.0950000000	at recognizing
0.0950000000	at minimizing
0.0950000000	at estimating
0.0950000000	at specific
0.0950000000	at arbitrary
0.0950000000	at regular
0.0950000000	at times
0.0950000000	at extracting
0.0950000000	at developing
0.0950000000	good prediction
0.0950000000	better segmentation
0.0950000000	better prediction
0.0950000000	better image
0.0950000000	better model
0.0950000000	better visual
0.0950000000	better solution
0.0950000000	better fit
0.0950000000	better models
0.0950000000	better test
0.0950000000	better performances
0.0950000000	better translation
0.0950000000	better estimates
0.0950000000	better convergence
0.0950000000	better detection
0.0950000000	better capture
0.0950000000	better feature
0.0950000000	better predictions
0.0950000000	better computational
0.0950000000	better clustering
0.0950000000	better approximation
0.0950000000	time model
0.0950000000	better robustness
0.0950000000	time implementation
0.0950000000	various components
0.0950000000	various challenging
0.0950000000	time solution
0.0950000000	various problems
0.0950000000	between frames
0.0950000000	time feedback
0.0950000000	also verify
0.0950000000	by natural
0.0950000000	various scales
0.0950000000	further proposed
0.0950000000	better quality
0.0950000000	between distributions
0.0950000000	between concepts
0.0950000000	by approximately
0.0950000000	also identifies
0.0950000000	various lexical
0.0950000000	by methods
0.0950000000	by experts
0.0950000000	by convolutional
0.0950000000	by separating
0.0950000000	contains multiple
0.0950000000	also designed
0.0950000000	various learning
0.0950000000	also incorporates
0.0950000000	also characterize
0.0950000000	also makes
0.0950000000	also explored
0.0950000000	various objects
0.0950000000	also outline
0.0950000000	various experimental
0.0950000000	various languages
0.0950000000	between sentences
0.0950000000	various scenarios
0.0950000000	at improving
0.0950000000	also illustrate
0.0950000000	various visual
0.0950000000	various models
0.0950000000	various deep
0.0950000000	various vision
0.0950000000	various areas
0.0950000000	various features
0.0950000000	various classification
0.0950000000	various data
0.0950000000	various benchmark
0.0950000000	various examples
0.0950000000	various existing
0.0950000000	various parameters
0.0950000000	various optimization
0.0950000000	various challenges
0.0950000000	various sizes
0.0950000000	also providing
0.0950000000	various topics
0.0950000000	also reveal
0.0950000000	various baselines
0.0950000000	between parameters
0.0950000000	further training
0.0950000000	last step
0.0950000000	well performing
0.0950000000	and incrementally
0.0950000000	and extreme
0.0950000000	and limit
0.0950000000	and surfaces
0.0950000000	and linking
0.0950000000	and preserve
0.0950000000	contain information
0.0950000000	and acquisition
0.0950000000	and capacity
0.0950000000	and regularity
0.0950000000	and price
0.0950000000	and organizations
0.0950000000	and indirect
0.0950000000	and topology
0.0950000000	and relative
0.0950000000	and translate
0.0950000000	and intra
0.0950000000	and communication
0.0950000000	and variability
0.0950000000	and coordinate
0.0950000000	with surface
0.0950000000	and decentralized
0.0950000000	and coreference
0.0950000000	well developed
0.0950000000	and offline
0.0950000000	and uncertain
0.0950000000	and transparent
0.0950000000	and 90
0.0950000000	and viewpoint
0.0950000000	and curvature
0.0950000000	and correctness
0.0950000000	and effort
0.0950000000	and observational
0.0950000000	and sgd
0.0950000000	and superiority
0.0950000000	and finding
0.0950000000	and supporting
0.0950000000	non random
0.0950000000	with dynamic
0.0950000000	non technical
0.0950000000	and technologies
0.0950000000	uses local
0.0950000000	uses information
0.0950000000	uses multiple
0.0950000000	uses deep
0.0950000000	find evidence
0.0950000000	and foreground
0.0950000000	and minimax
0.0950000000	and depends
0.0950000000	and survival
0.0950000000	and synthesis
0.0950000000	and contextual
0.0950000000	and corpora
0.0950000000	with quadratic
0.0950000000	and 9
0.0950000000	and infers
0.0950000000	with equivalent
0.0950000000	and selecting
0.0950000000	and selects
0.0950000000	with constraint
0.0950000000	and predicts
0.0950000000	and create
0.0950000000	and 6
0.0950000000	and weight
0.0950000000	with additive
0.0950000000	and choose
0.0950000000	and avoiding
0.0950000000	and singular
0.0950000000	and scenes
0.0950000000	and activations
0.0950000000	and stores
0.0950000000	with geometric
0.0950000000	and piecewise
0.0950000000	and evolution
0.0950000000	and solutions
0.0950000000	and highlights
0.0950000000	and broad
0.0950000000	and relevant
0.0950000000	with distributed
0.0950000000	and modern
0.0950000000	and scales
0.0950000000	and path
0.0950000000	and consists
0.0950000000	and trained
0.0950000000	with binary
0.0950000000	and retraining
0.0950000000	part 2
0.0950000000	and recording
0.0950000000	and cognition
0.0950000000	and backward
0.0950000000	and store
0.0950000000	and psychological
0.0950000000	and directions
0.0950000000	and fluent
0.0950000000	and multilayer
0.0950000000	and operational
0.0950000000	non unique
0.0950000000	and german
0.0950000000	2017 task
0.0950000000	and fusing
0.0950000000	next step
0.0950000000	and ssd
0.0950000000	sequential model
0.0950000000	and metadata
0.0950000000	and categorize
0.0950000000	with independent
0.0950000000	sequential learning
0.0950000000	and optimized
0.0950000000	with hand
0.0950000000	with expert
0.0950000000	and provided
0.0950000000	and word2vec
0.0950000000	with negation
0.0950000000	and deformable
0.0950000000	and colour
0.0950000000	and political
0.0950000000	and polynomial
0.0950000000	and differential
0.0950000000	and candidate
0.0950000000	find relevant
0.0950000000	and recovering
0.0950000000	and advanced
0.0950000000	and transmission
0.0950000000	and boundary
0.0950000000	way forward
0.0950000000	way data
0.0950000000	and fingerprint
0.0950000000	and differentiable
0.0950000000	and simulations
0.0950000000	and adapting
0.0950000000	and reflection
0.0950000000	across data
0.0950000000	and trains
0.0950000000	and sensitive
0.0950000000	those achieved
0.0950000000	those algorithms
0.0950000000	those cases
0.0950000000	those approaches
0.0950000000	those learned
0.0950000000	those tasks
0.0950000000	those models
0.0950000000	across large
0.0950000000	and infinite
0.0950000000	find solutions
0.0950000000	next word
0.0950000000	those images
0.0950000000	next level
0.0950000000	and energy
0.0950000000	with semi
0.0950000000	and dialog
0.0950000000	and constructs
0.0950000000	and vertical
0.0950000000	with word
0.0950000000	non metric
0.0950000000	and stanford
0.0950000000	during online
0.0950000000	and influence
0.0950000000	during image
0.0950000000	during optimization
0.0950000000	during search
0.0950000000	and specific
0.0950000000	during test
0.0950000000	and modelling
0.0950000000	and balancing
0.0950000000	and severe
0.0950000000	non textual
0.0950000000	and node
0.0950000000	and methodology
0.0950000000	non human
0.0950000000	non normal
0.0950000000	and extrinsic
0.0950000000	non additive
0.0950000000	non optimal
0.0950000000	non probabilistic
0.0950000000	and size
0.0950000000	non informative
0.0950000000	non parallel
0.0950000000	non linearly
0.0950000000	and experience
0.0950000000	non distributed
0.0950000000	and correlations
0.0950000000	and power
0.0950000000	and hardware
0.0950000000	and discussion
0.0950000000	and mining
0.0950000000	and skeleton
0.0950000000	and mixed
0.0950000000	and environments
0.0950000000	with covariates
0.0950000000	and cluttered
0.0950000000	and reduced
0.0950000000	and deblurring
0.0950000000	and multiscale
0.0950000000	and procedures
0.0950000000	with attention
0.0950000000	and subsequent
0.0950000000	and shading
0.0950000000	and 50
0.0950000000	and categorization
0.0950000000	and straightforward
0.0950000000	with rank
0.0950000000	uses bayesian
0.0950000000	and dempster
0.0950000000	with tree
0.0950000000	and items
0.0950000000	and late
0.0950000000	and biomedical
0.0950000000	and align
0.0950000000	with object
0.0950000000	and guide
0.0950000000	with mutual
0.0950000000	and rotation
0.0950000000	with challenging
0.0950000000	and phonetic
0.0950000000	and french
0.0950000000	and propositional
0.0950000000	with moderate
0.0950000000	and angle
0.0950000000	and robotic
0.0950000000	and managing
0.0950000000	and plausibility
0.0950000000	and combining
0.0950000000	and naive
0.0950000000	and coarse
0.0950000000	and limited
0.0950000000	and japanese
0.0950000000	and auxiliary
0.0950000000	and voice
0.0950000000	and resource
0.0950000000	and technological
0.0950000000	and construction
0.0950000000	and algorithmic
0.0950000000	and valuable
0.0950000000	and augmented
0.0950000000	and localisation
0.0950000000	and prevention
0.0950000000	and balanced
0.0950000000	and aim
0.0950000000	and manipulating
0.0950000000	with textual
0.0950000000	and topical
0.0950000000	and irregular
0.0950000000	and refined
0.0950000000	and outer
0.0950000000	and wavelet
0.0950000000	and cooperative
0.0950000000	and interval
0.0950000000	and inaccurate
0.0950000000	and collective
0.0950000000	and segmenting
0.0950000000	and inherent
0.0950000000	and retrieve
0.0950000000	with bidirectional
0.0950000000	and edge
0.0950000000	and linguistic
0.0950000000	with energy
0.0950000000	and cultural
0.0950000000	find optimal
0.0950000000	and term
0.0950000000	and concept
0.0950000000	and crowd
0.0950000000	and deconvolution
0.0950000000	and ranked
0.0950000000	with residual
0.0950000000	and normalization
0.0950000000	and wordnet
0.0950000000	and prosodic
0.0950000000	and amazon
0.0950000000	and manage
0.0950000000	and resolution
0.0950000000	and cut
0.0950000000	and calculate
0.0950000000	and locate
0.0950000000	and abundance
0.0950000000	and absolute
0.0950000000	and highlighting
0.0950000000	and neutral
0.0950000000	and critical
0.0950000000	and larger
0.0950000000	and embed
0.0950000000	and decisions
0.0950000000	and medium
0.0950000000	and functionality
0.0950000000	and estimation
0.0950000000	and asymmetric
0.0950000000	and likelihood
0.0950000000	and reverse
0.0950000000	and unit
0.0950000000	and submodular
0.0950000000	and personalized
0.0950000000	and clean
0.0950000000	and resulting
0.0950000000	and encouraging
0.0950000000	and benchmarking
0.0950000000	and conditioning
0.0950000000	and simpler
0.0950000000	with confidence
0.0950000000	and quantization
0.0950000000	with heterogeneous
0.0950000000	with poisson
0.0950000000	and prognosis
0.0950000000	and exhibit
0.0950000000	and developers
0.0950000000	with equal
0.0950000000	and remains
0.0950000000	and smart
0.0950000000	and volume
0.0950000000	and urban
0.0950000000	and coverage
0.0950000000	and conditions
0.0950000000	and ridge
0.0950000000	and issues
0.0950000000	and failure
0.0950000000	and position
0.0950000000	and attempts
0.0950000000	and retrieving
0.0950000000	with unbounded
0.0950000000	and creates
0.0950000000	and temporally
0.0950000000	and tight
0.0950000000	and plan
0.0950000000	and approximately
0.0950000000	and counter
0.0950000000	and analytically
0.0950000000	and collect
0.0950000000	and possibility
0.0950000000	and groups
0.0950000000	and irrelevant
0.0950000000	and strictly
0.0950000000	and experiment
0.0950000000	and reduction
0.0950000000	and eliminate
0.0950000000	and sophisticated
0.0950000000	and mass
0.0950000000	and transient
0.0950000000	and decreases
0.0950000000	and diffusion
0.0950000000	and encode
0.0950000000	and 80
0.0950000000	and uncertainties
0.0950000000	and deformations
0.0950000000	and science
0.0950000000	and textures
0.0950000000	and operate
0.0950000000	and unique
0.0950000000	and covariance
0.0950000000	and water
0.0950000000	and constrain
0.0950000000	and realistic
0.0950000000	with structural
0.0950000000	and weighting
0.0950000000	and anti
0.0950000000	with identical
0.0950000000	and pathological
0.0950000000	and faces
0.0950000000	and sequentially
0.0950000000	and follow
0.0950000000	and population
0.0950000000	and heuristic
0.0950000000	and measure
0.0950000000	and tumor
0.0950000000	and proves
0.0950000000	and analyzes
0.0950000000	and enhanced
0.0950000000	and recovery
0.0950000000	and classifies
0.0950000000	and orientations
0.0950000000	and 60
0.0950000000	and gesture
0.0950000000	and plays
0.0950000000	and merging
0.0950000000	and bandwidth
0.0950000000	and convenient
0.0950000000	and strongly
0.0950000000	with heavy
0.0950000000	and modify
0.0950000000	and free
0.0950000000	and change
0.0950000000	and modular
0.0950000000	and segment
0.0950000000	and head
0.0950000000	and writing
0.0950000000	and visually
0.0950000000	with potentially
0.0950000000	and review
0.0950000000	with simulations
0.0950000000	and opens
0.0950000000	and projection
0.0950000000	and quantifying
0.0950000000	and youtube
0.0950000000	and original
0.0950000000	and hashing
0.0950000000	with infinitely
0.0950000000	and derived
0.0950000000	and ignore
0.0950000000	and established
0.0950000000	and regional
0.0950000000	and seek
0.0950000000	and ratio
0.0950000000	and uniqueness
0.0950000000	and occlusions
0.0950000000	and post
0.0950000000	and multilabel
0.0950000000	and disease
0.0950000000	and perspective
0.0950000000	and optimal
0.0950000000	and lfw
0.0950000000	and detecting
0.0950000000	and poses
0.0950000000	and serve
0.0950000000	and bi
0.0950000000	with 14
0.0950000000	and generally
0.0950000000	and 2012
0.0950000000	and constraints
0.0950000000	and direction
0.0950000000	and goals
0.0950000000	and outline
0.0950000000	and stationary
0.0950000000	sequential structure
0.0950000000	and levels
0.0950000000	and eliminating
0.0950000000	and customer
0.0950000000	and enjoys
0.0950000000	and challenges
0.0950000000	and icdar
0.0950000000	and mental
0.0950000000	and refines
0.0950000000	and close
0.0950000000	well posed
0.0950000000	and growing
0.0950000000	and soft
0.0950000000	and matches
0.0950000000	and trade
0.0950000000	and closed
0.0950000000	and averaging
0.0950000000	and inductive
0.0950000000	and redundant
0.0950000000	and mathematical
0.0950000000	with heuristic
0.0950000000	and reveal
0.0950000000	and double
0.0950000000	and morphological
0.0950000000	and hessian
0.0950000000	and order
0.0950000000	with detailed
0.0950000000	and wikipedia
0.0950000000	and correlation
0.0950000000	with negative
0.0950000000	and bounds
0.0950000000	and robustly
0.0950000000	and risk
0.0950000000	and predictions
0.0950000000	and runs
0.0950000000	and approximation
0.0950000000	and swarm
0.0950000000	and split
0.0950000000	and retains
0.0950000000	and smoothness
0.0950000000	and correct
0.0950000000	and true
0.0950000000	and undirected
0.0950000000	and simply
0.0950000000	and observing
0.0950000000	and events
0.0950000000	and scaling
0.0950000000	with uniform
0.0950000000	and spatially
0.0950000000	and nonparametric
0.0950000000	and regret
0.0950000000	and expected
0.0950000000	and implicit
0.0950000000	and cheap
0.0950000000	and quadratic
0.0950000000	with uncertainty
0.0950000000	with shape
0.0950000000	and propagate
0.0950000000	and academia
0.0950000000	and cooperation
0.0950000000	and extending
0.0950000000	and adds
0.0950000000	and mixing
0.0950000000	and sensor
0.0950000000	and mcmc
0.0950000000	and increased
0.0950000000	and products
0.0950000000	and transition
0.0950000000	and surrounding
0.0950000000	and inverse
0.0950000000	and manually
0.0950000000	and limits
0.0950000000	and normal
0.0950000000	and incorporating
0.0950000000	and sketch
0.0950000000	and surveillance
0.0950000000	and difficulties
0.0950000000	and blind
0.0950000000	and inferring
0.0950000000	and appearance
0.0950000000	and mixture
0.0950000000	and handwritten
0.0950000000	and generalizes
0.0950000000	and executing
0.0950000000	and processes
0.0950000000	and clinical
0.0950000000	and perspectives
0.0950000000	and white
0.0950000000	and exponential
0.0950000000	and static
0.0950000000	and classifier
0.0950000000	and produced
0.0950000000	and programming
0.0950000000	and considerably
0.0950000000	and representations
0.0950000000	and maintains
0.0950000000	and informal
0.0950000000	and trace
0.0950000000	and manifold
0.0950000000	and errors
0.0950000000	and provably
0.0950000000	and lexicon
0.0950000000	and document
0.0950000000	and inconsistent
0.0950000000	and bootstrapping
0.0950000000	and symmetry
0.0950000000	and type
0.0950000000	and imitation
0.0950000000	and message
0.0950000000	and simulation
0.0950000000	and humans
0.0950000000	with comparable
0.0950000000	and entity
0.0950000000	and simplify
0.0950000000	and utilizing
0.0950000000	and emotion
0.0950000000	and includes
0.0950000000	and storing
0.0950000000	and moving
0.0950000000	and product
0.0950000000	and approximations
0.0950000000	and 7
0.0950000000	and edges
0.0950000000	and method
0.0950000000	with compact
0.0950000000	and unified
0.0950000000	and investigated
0.0950000000	and finds
0.0950000000	and changing
0.0950000000	and naturally
0.0950000000	and 8
0.0950000000	and exciting
0.0950000000	with noisy
0.0950000000	and previously
0.0950000000	and extracting
0.0950000000	and nonconvex
0.0950000000	and ensure
0.0950000000	and polarity
0.0950000000	and tackle
0.0950000000	and opinion
0.0950000000	and achieving
0.0950000000	and mid
0.0950000000	and supports
0.0950000000	and bandit
0.0950000000	and meta
0.0950000000	and discovery
0.0950000000	and estimate
0.0950000000	and genomic
0.0950000000	and typical
0.0950000000	and proposed
0.0950000000	with statistically
0.0950000000	and environmental
0.0950000000	and meaningful
0.0950000000	and geometrical
0.0950000000	and distribution
0.0950000000	with experience
0.0950000000	well annotated
0.0950000000	and estimating
0.0950000000	and varied
0.0950000000	and equivalence
0.0950000000	and locally
0.0950000000	and chemical
0.0950000000	and matlab
0.0950000000	and reach
0.0950000000	and deploy
0.0950000000	and function
0.0950000000	and safety
0.0950000000	and qualitatively
0.0950000000	and newly
0.0950000000	and deconvolutional
0.0950000000	and sun
0.0950000000	and distinguishing
0.0950000000	and combines
0.0950000000	and learned
0.0950000000	and describing
0.0950000000	and minimal
0.0950000000	with positive
0.0950000000	and preliminary
0.0950000000	with severe
0.0950000000	and exhibits
0.0950000000	and machines
0.0950000000	and independent
0.0950000000	and tuning
0.0950000000	and public
0.0950000000	and hyperparameters
0.0950000000	and representing
0.0950000000	and increases
0.0950000000	and complicated
0.0950000000	and alternating
0.0950000000	and deterministic
0.0950000000	and precisely
0.0950000000	sequential prediction
0.0950000000	and aims
0.0950000000	and solving
0.0950000000	and linear
0.0950000000	and introducing
0.0950000000	and fixed
0.0950000000	and coco
0.0950000000	and nlp
0.0950000000	and distributed
0.0950000000	and overfitting
0.0950000000	with multimodal
0.0950000000	and parallel
0.0950000000	and variable
0.0950000000	and bound
0.0950000000	and ideas
0.0950000000	and optimisation
0.0950000000	and compound
0.0950000000	and relationships
0.0950000000	and expressive
0.0950000000	and restricted
0.0950000000	and engineering
0.0950000000	with uncertain
0.0950000000	and functions
0.0950000000	and individuals
0.0950000000	and designing
0.0950000000	and promote
0.0950000000	and generalized
0.0950000000	and greatly
0.0950000000	and deriving
0.0950000000	and case
0.0950000000	and backpropagation
0.0950000000	and separation
0.0950000000	and employs
0.0950000000	and generative
0.0950000000	and excellent
0.0950000000	and individual
0.0950000000	and similarities
0.0950000000	and drawbacks
0.0950000000	with concept
0.0950000000	and comparable
0.0950000000	and explicitly
0.0950000000	and studies
0.0950000000	and overlapping
0.0950000000	non stochastic
0.0950000000	and expressions
0.0950000000	and measures
0.0950000000	and massive
0.0950000000	and receive
0.0950000000	and allowing
0.0950000000	with rapid
0.0950000000	and semantics
0.0950000000	and logical
0.0950000000	and formally
0.0950000000	and policies
0.0950000000	and making
0.0950000000	and exploiting
0.0950000000	and russian
0.0950000000	and imprecise
0.0950000000	and measuring
0.0950000000	and hyperspectral
0.0950000000	and rank
0.0950000000	and demonstrated
0.0950000000	and explanation
0.0950000000	and sum
0.0950000000	and finite
0.0950000000	and alternative
0.0950000000	and explores
0.0950000000	and connectionist
0.0950000000	and parameters
0.0950000000	and separate
0.0950000000	and syntax
0.0950000000	and discussed
0.0950000000	and industry
0.0950000000	and biology
0.0950000000	and implements
0.0950000000	and 12
0.0950000000	with complete
0.0950000000	and partial
0.0950000000	and interpreting
0.0950000000	and autonomous
0.0950000000	and monitor
0.0950000000	and graphs
0.0950000000	and discovering
0.0950000000	and elegant
0.0950000000	and insights
0.0950000000	and services
0.0950000000	and leveraging
0.0950000000	and reusable
0.0950000000	and inspired
0.0950000000	and increasing
0.0950000000	and unseen
0.0950000000	and unknown
0.0950000000	and tag
0.0950000000	and conclusions
0.0950000000	and celeba
0.0950000000	and modified
0.0950000000	and forward
0.0950000000	and presented
0.0950000000	and formulate
0.0950000000	and strong
0.0950000000	and adaptively
0.0950000000	and select
0.0950000000	and extraction
0.0950000000	and underlying
0.0950000000	and computing
0.0950000000	and lstms
0.0950000000	and words
0.0950000000	and conquer
0.0950000000	and environment
0.0950000000	and weak
0.0950000000	and gru
0.0950000000	and stacked
0.0950000000	and released
0.0950000000	and categories
0.0950000000	and analytical
0.0950000000	and aggregate
0.0950000000	and frequency
0.0950000000	and annotations
0.0950000000	and corpus
0.0950000000	and specialized
0.0950000000	and existing
0.0950000000	and reasonable
0.0950000000	and returns
0.0950000000	and ambiguity
0.0950000000	and read
0.0950000000	and lstm
0.0950000000	and nodes
0.0950000000	and radial
0.0950000000	and architecture
0.0950000000	and address
0.0950000000	and production
0.0950000000	and traditional
0.0950000000	and expert
0.0950000000	and raise
0.0950000000	and occluded
0.0950000000	and identifies
0.0950000000	and software
0.0950000000	well connected
0.0950000000	and capabilities
0.0950000000	and annotation
0.0950000000	and classifying
0.0950000000	and interact
0.0950000000	and reducing
0.0950000000	and playing
0.0950000000	and dataset
0.0950000000	and embedded
0.0950000000	and process
0.0950000000	and asynchronous
0.0950000000	and represents
0.0950000000	and describes
0.0950000000	and giving
0.0950000000	and attributes
0.0950000000	and practically
0.0950000000	and solves
0.0950000000	and affine
0.0950000000	and hyper
0.0950000000	and maximizing
0.0950000000	and randomized
0.0950000000	and vector
0.0950000000	with regular
0.0950000000	and symbolic
0.0950000000	and competitive
0.0950000000	and answers
0.0950000000	and compositional
0.0950000000	and challenge
0.0950000000	and bias
0.0950000000	and facebook
0.0950000000	and positive
0.0950000000	and benefit
0.0950000000	and proving
0.0950000000	and 15
0.0950000000	and bounding
0.0950000000	and directly
0.0950000000	and optimizing
0.0950000000	and timing
0.0950000000	and heuristics
0.0950000000	with active
0.0950000000	and leverage
0.0950000000	and explaining
0.0950000000	with performance
0.0950000000	with hard
0.0950000000	and experiments
0.0950000000	and directed
0.0950000000	with symmetric
0.0950000000	with distributional
0.0950000000	and recognize
0.0950000000	and intrinsic
0.0950000000	and samples
0.0950000000	and gpus
0.0950000000	and assume
0.0950000000	and restoration
0.0950000000	and sequences
0.0950000000	and bayes
0.0950000000	with probabilities
0.0950000000	and optimizes
0.0950000000	and goal
0.0950000000	and flickr30k
0.0950000000	with rgb
0.0950000000	with deterministic
0.0950000000	and markov
0.0950000000	and establishes
0.0950000000	and superior
0.0950000000	and hog
0.0950000000	and thresholding
0.0950000000	and stored
0.0950000000	and nonsmooth
0.0950000000	and cifar10
0.0950000000	and recommender
0.0950000000	with great
0.0950000000	and gpu
0.0950000000	and theoretically
0.0950000000	with related
0.0950000000	with robust
0.0950000000	with huge
0.0950000000	with face
0.0950000000	with partially
0.0950000000	and transformation
0.0950000000	with focus
0.0950000000	with average
0.0950000000	with optimization
0.0950000000	with closed
0.0950000000	and crowdsourcing
0.0950000000	with 7
0.0950000000	and safe
0.0950000000	with success
0.0950000000	with arbitrarily
0.0950000000	with error
0.0950000000	with age
0.0950000000	with special
0.0950000000	well trained
0.0950000000	with diverse
0.0950000000	with dependent
0.0950000000	with implicit
0.0950000000	and topics
0.0950000000	with triplet
0.0950000000	with previously
0.0950000000	with smooth
0.0950000000	and cost
0.0950000000	and refine
0.0950000000	with decision
0.0950000000	and metrics
0.0950000000	and integrated
0.0950000000	with online
0.0950000000	with inductive
0.0950000000	and navigation
0.0950000000	and effect
0.0950000000	and view
0.0950000000	and utilizes
0.0950000000	and comprehensive
0.0950000000	and feed
0.0950000000	even faster
0.0950000000	and imaging
0.0950000000	with variational
0.0950000000	and cognitive
0.0950000000	with dimension
0.0950000000	and captures
0.0950000000	with exponential
0.0950000000	with 2
0.0950000000	with individual
0.0950000000	and bounded
0.0950000000	and analyses
0.0950000000	with infinite
0.0950000000	and coherent
0.0950000000	and variances
0.0950000000	and outdoor
0.0950000000	and reviews
0.0950000000	well motivated
0.0950000000	with modern
0.0950000000	and multitask
0.0950000000	and applying
0.0950000000	with preferences
0.0950000000	and respond
0.0950000000	and caltech
0.0950000000	and money
0.0950000000	and auc
0.0950000000	with image
0.0950000000	and motor
0.0950000000	and mapping
0.0950000000	and aggregating
0.0950000000	with bayesian
0.0950000000	with motion
0.0950000000	with constrained
0.0950000000	with baseline
0.0950000000	with errors
0.0950000000	across tasks
0.0950000000	with pre
0.0950000000	and interactive
0.0950000000	with medical
0.0950000000	and share
0.0950000000	and modeling
0.0950000000	with slight
0.0950000000	and meaning
0.0950000000	with qualitative
0.0950000000	and intensity
0.0950000000	with overlapping
0.0950000000	and economic
0.0950000000	with general
0.0950000000	with structure
0.0950000000	with popular
0.0950000000	with graph
0.0950000000	with computational
0.0950000000	and numerous
0.0950000000	and conceptual
0.0950000000	and discrimination
0.0950000000	with models
0.0950000000	and marginal
0.0950000000	and researchers
0.0950000000	and confirm
0.0950000000	with logical
0.0950000000	and approaches
0.0950000000	with end
0.0950000000	and introduces
0.0950000000	with considerable
0.0950000000	and imbalanced
0.0950000000	with realistic
0.0950000000	with regularization
0.0950000000	and security
0.0950000000	and textual
0.0950000000	and languages
0.0950000000	and ability
0.0950000000	with greater
0.0950000000	with tens
0.0950000000	and 100
0.0950000000	with examples
0.0950000000	with variations
0.0950000000	with task
0.0950000000	with complicated
0.0950000000	and exploits
0.0950000000	and benchmark
0.0950000000	and composition
0.0950000000	with skip
0.0950000000	with kernel
0.0950000000	with sampling
0.0950000000	with set
0.0950000000	and localize
0.0950000000	and costs
0.0950000000	with extreme
0.0950000000	with short
0.0950000000	and infer
0.0950000000	and introduced
0.0950000000	and architectures
0.0950000000	with depth
0.0950000000	with smaller
0.0950000000	with unsupervised
0.0950000000	with convex
0.0950000000	with desired
0.0950000000	with generative
0.0950000000	with separate
0.0950000000	and abstract
0.0950000000	with changing
0.0950000000	with highest
0.0950000000	with single
0.0950000000	and single
0.0950000000	with randomly
0.0950000000	and built
0.0950000000	with lstm
0.0950000000	and 1
0.0950000000	with promising
0.0950000000	and contribute
0.0950000000	with generalized
0.0950000000	and baseline
0.0950000000	and match
0.0950000000	with problems
0.0950000000	with 4
0.0950000000	and distant
0.0950000000	and pairwise
0.0950000000	and varying
0.0950000000	with flexible
0.0950000000	with parallel
0.0950000000	with practical
0.0950000000	with approximate
0.0950000000	with raw
0.0950000000	with labeled
0.0950000000	and inpainting
0.0950000000	and act
0.0950000000	with optimal
0.0950000000	and actions
0.0950000000	with cognitive
0.0950000000	and mouth
0.0950000000	with typical
0.0950000000	with discriminative
0.0950000000	and response
0.0950000000	and operations
0.0950000000	with automatic
0.0950000000	with objects
0.0950000000	with results
0.0950000000	with reduced
0.0950000000	with supervised
0.0950000000	with 3
0.0950000000	with 10
0.0950000000	and rapidly
0.0950000000	and outperforming
0.0950000000	with cross
0.0950000000	with adversarial
0.0950000000	with event
0.0950000000	with established
0.0950000000	with unseen
0.0950000000	with powerful
0.0950000000	and drug
0.0950000000	with specific
0.0950000000	with 1
0.0950000000	and significant
0.0950000000	and private
0.0950000000	with logistic
0.0950000000	and gaussian
0.0950000000	with differing
0.0950000000	and lda
0.0950000000	with accurate
0.0950000000	and characterization
0.0950000000	with generalization
0.0950000000	and component
0.0950000000	with gated
0.0950000000	with learned
0.0950000000	with current
0.0950000000	and increasingly
0.0950000000	with excellent
0.0950000000	with spectral
0.0950000000	with visual
0.0950000000	with backpropagation
0.0950000000	with scale
0.0950000000	with constraints
0.0950000000	and iterative
0.0950000000	and defines
0.0950000000	and acting
0.0950000000	with features
0.0950000000	with previous
0.0950000000	with input
0.0950000000	with alternative
0.0950000000	and regular
0.0950000000	with poor
0.0950000000	and capture
0.0950000000	with svm
0.0950000000	and transform
0.0950000000	and boosted
0.0950000000	with cnns
0.0950000000	and fit
0.0950000000	with nonlinear
0.0950000000	with trace
0.0950000000	with shared
0.0950000000	with competitive
0.0950000000	with highly
0.0950000000	and disambiguation
0.0950000000	with region
0.0950000000	and research
0.0950000000	and devise
0.0950000000	and quickly
0.0950000000	with weighted
0.0950000000	and velocity
0.0950000000	and numerically
0.0950000000	with recent
0.0950000000	and sufficient
0.0950000000	with evolutionary
0.0950000000	and disadvantages
0.0950000000	and recognizing
0.0950000000	with increased
0.0950000000	and arbitrary
0.0950000000	with insufficient
0.0950000000	and costly
0.0950000000	and informative
0.0950000000	and querying
0.0950000000	and agent
0.0950000000	and adaptation
0.0950000000	and helps
0.0950000000	and reveals
0.0950000000	and scene
0.0950000000	across layers
0.0950000000	with strongly
0.0950000000	with action
0.0950000000	and behavioral
0.0950000000	and exploitation
0.0950000000	with temporal
0.0950000000	and providing
0.0950000000	with benchmark
0.0950000000	with 50
0.0950000000	and forecasting
0.0950000000	well chosen
0.0950000000	and car
0.0950000000	and columns
0.0950000000	and log
0.0950000000	and interesting
0.0950000000	with static
0.0950000000	with joint
0.0950000000	and autoencoder
0.0950000000	with efficient
0.0950000000	with recognition
0.0950000000	and euclidean
0.0950000000	and amplitude
0.0950000000	and collaboration
0.0950000000	and dynamically
0.0950000000	and summarization
0.0950000000	and completion
0.0950000000	and avoids
0.0950000000	with outliers
0.0950000000	and dense
0.0950000000	and check
0.0950000000	and boosting
0.0950000000	and analogy
0.0950000000	with common
0.0950000000	and observations
0.0950000000	and easier
0.0950000000	and access
0.0950000000	and algorithms
0.0950000000	with 8
0.0950000000	and management
0.0950000000	and takes
0.0950000000	and fundamental
0.0950000000	with enhanced
0.0950000000	with finite
0.0950000000	and processed
0.0950000000	and links
0.0950000000	and recently
0.0950000000	and illustrated
0.0950000000	with unlabeled
0.0950000000	and direct
0.0950000000	and hybrid
0.0950000000	and generated
0.0950000000	and representative
0.0950000000	and google
0.0950000000	and connect
0.0950000000	and audio
0.0950000000	and incremental
0.0950000000	and careful
0.0950000000	and filtering
0.0950000000	and open
0.0950000000	with sparsity
0.0950000000	and cifar
0.0950000000	and entailment
0.0950000000	and synthesize
0.0950000000	with spatially
0.0950000000	and patient
0.0950000000	with 2d
0.0950000000	and pre
0.0950000000	and prototype
0.0950000000	with piecewise
0.0950000000	with supervision
0.0950000000	with logic
0.0950000000	and trends
0.0950000000	and smoothing
0.0950000000	and behaviors
0.0950000000	and synaptic
0.0950000000	and blood
0.0950000000	and identification
0.0950000000	and enhances
0.0950000000	and novelty
0.0950000000	and estimated
0.0950000000	and multiplicative
0.0950000000	with relevant
0.0950000000	and extended
0.0950000000	and nonlinear
0.0950000000	with text
0.0950000000	and proven
0.0950000000	and combination
0.0950000000	and regularized
0.0950000000	with accuracy
0.0950000000	and successful
0.0950000000	with future
0.0950000000	and impact
0.0950000000	and default
0.0950000000	and interpolation
0.0950000000	and rich
0.0950000000	with hierarchical
0.0950000000	and constructing
0.0950000000	and connected
0.0950000000	and morphology
0.0950000000	with 20
0.0950000000	and summarize
0.0950000000	and resnet
0.0950000000	and features
0.0950000000	and updated
0.0950000000	and conflicting
0.0950000000	and mathematically
0.0950000000	and leverages
0.0950000000	and abnormal
0.0950000000	and rotations
0.0950000000	with sequence
0.0950000000	and auto
0.0950000000	with color
0.0950000000	and lighting
0.0950000000	with formal
0.0950000000	with polynomial
0.0950000000	and level
0.0950000000	with spike
0.0950000000	and maintaining
0.0950000000	and np
0.0950000000	and integrates
0.0950000000	and parsing
0.0950000000	with 100
0.0950000000	and traffic
0.0950000000	and entities
0.0950000000	and width
0.0950000000	and patients
0.0950000000	and obtaining
0.0950000000	with techniques
0.0950000000	and difference
0.0950000000	with learning
0.0950000000	and description
0.0950000000	with soft
0.0950000000	and annotate
0.0950000000	with convergence
0.0950000000	and wider
0.0950000000	and justify
0.0950000000	with semantic
0.0950000000	with annotations
0.0950000000	and heterogeneous
0.0950000000	and pearl
0.0950000000	and minimizing
0.0950000000	and structures
0.0950000000	and anomalous
0.0950000000	and extension
0.0950000000	and neuroscience
0.0950000000	and dialogue
0.0950000000	with edge
0.0950000000	and automated
0.0950000000	with improved
0.0950000000	and explains
0.0950000000	with weak
0.0950000000	and add
0.0950000000	with iterative
0.0950000000	and synapses
0.0950000000	and carry
0.0950000000	and sound
0.0950000000	and practitioners
0.0950000000	and decoding
0.0950000000	and briefly
0.0950000000	and range
0.0950000000	and updating
0.0950000000	with orthogonal
0.0950000000	and aerial
0.0950000000	and lexical
0.0950000000	and tractable
0.0950000000	and generating
0.0950000000	and predicted
0.0950000000	and complement
0.0950000000	and maximum
0.0950000000	with noise
0.0950000000	with relative
0.0950000000	and completeness
0.0950000000	with clustering
0.0950000000	and industrial
0.0950000000	well designed
0.0950000000	and death
0.0950000000	and adaptable
0.0950000000	and database
0.0950000000	and datasets
0.0950000000	and characterizing
0.0950000000	and games
0.0950000000	and attempt
0.0950000000	with labels
0.0950000000	and adopt
0.0950000000	with rnn
0.0950000000	and domains
0.0950000000	and line
0.0950000000	and latency
0.0950000000	with structured
0.0950000000	and cluster
0.0950000000	with sample
0.0950000000	and roc
0.0950000000	and biased
0.0950000000	with hybrid
0.0950000000	with empirical
0.0950000000	with superior
0.0950000000	with sophisticated
0.0950000000	and assuming
0.0950000000	with class
0.0950000000	and extensively
0.0950000000	and distributional
0.0950000000	and usage
0.0950000000	and considers
0.0950000000	and save
0.0950000000	and nature
0.0950000000	with simultaneous
0.0950000000	with context
0.0950000000	and added
0.0950000000	and secondary
0.0950000000	and extensive
0.0950000000	and verb
0.0950000000	with massive
0.0950000000	and reuse
0.0950000000	with information
0.0950000000	and versatile
0.0950000000	and chinese
0.0950000000	with classical
0.0950000000	with delayed
0.0950000000	and handling
0.0950000000	and labels
0.0950000000	and showing
0.0950000000	and correction
0.0950000000	and specifically
0.0950000000	and generalizability
0.0950000000	and streaming
0.0950000000	and determining
0.0950000000	and performance
0.0950000000	and return
0.0950000000	with batch
0.0950000000	and gps
0.0950000000	and globally
0.0950000000	and measurement
0.0950000000	and subjectivity
0.0950000000	and categorical
0.0950000000	and texts
0.0950000000	with direct
0.0950000000	with exact
0.0950000000	and light
0.0950000000	with basic
0.0950000000	and effectively
0.0950000000	with manual
0.0950000000	with dense
0.0950000000	with algorithms
0.0950000000	with meaningful
0.0950000000	and photo
0.0950000000	and necessity
0.0950000000	and reliably
0.0950000000	and greedy
0.0950000000	and sharing
0.0950000000	and financial
0.0950000000	and effects
0.0950000000	and denoising
0.0950000000	and heavy
0.0950000000	and sift
0.0950000000	with cost
0.0950000000	and rgb
0.0950000000	and canonical
0.0950000000	and implementation
0.0950000000	and clusters
0.0950000000	and estimates
0.0950000000	and fused
0.0950000000	and developing
0.0950000000	with maximum
0.0950000000	and models
0.0950000000	and predictive
0.0950000000	with social
0.0950000000	and displays
0.0950000000	and gradually
0.0950000000	and eye
0.0950000000	and systematic
0.0950000000	and demonstrates
0.0950000000	and age
0.0950000000	and reflectance
0.0950000000	and clutter
0.0950000000	and tune
0.0950000000	and emphasize
0.0950000000	and news
0.0950000000	and spectral
0.0950000000	and play
0.0950000000	and frequent
0.0950000000	with segmentation
0.0950000000	and formalize
0.0950000000	with incomplete
0.0950000000	and guarantees
0.0950000000	well modeled
0.0950000000	and strategies
0.0950000000	and semantically
0.0950000000	and recent
0.0950000000	and kitti
0.0950000000	and structural
0.0950000000	with growing
0.0950000000	and availability
0.0950000000	and ensures
0.0950000000	and dimensions
0.0950000000	and multiplication
0.0950000000	and compression
0.0950000000	and forgetting
0.0950000000	and offers
0.0950000000	and weighted
0.0950000000	with generic
0.0950000000	and prior
0.0950000000	and current
0.0950000000	with methods
0.0950000000	with parameters
0.0950000000	and historical
0.0950000000	and false
0.0950000000	with training
0.0950000000	and commercial
0.0950000000	and capturing
0.0950000000	and additional
0.0950000000	and stable
0.0950000000	and bring
0.0950000000	and movement
0.0950000000	and techniques
0.0950000000	and working
0.0950000000	and conduct
0.0950000000	with character
0.0950000000	and law
0.0950000000	and sampling
0.0950000000	well demonstrate
0.0950000000	and suffers
0.0950000000	and converge
0.0950000000	and hidden
0.0950000000	and implementing
0.0950000000	and tests
0.0950000000	with english
0.0950000000	with dual
0.0950000000	and wearable
0.0950000000	and randomness
0.0950000000	with attributes
0.0950000000	and improvements
0.0950000000	with complementary
0.0950000000	and main
0.0950000000	and builds
0.0950000000	with parameter
0.0950000000	with particle
0.0950000000	with wide
0.0950000000	with guaranteed
0.0950000000	and handcrafted
0.0950000000	with virtual
0.0950000000	and sense
0.0950000000	with values
0.0950000000	and constraint
0.0950000000	and producing
0.0950000000	and reported
0.0950000000	and localizing
0.0950000000	and brain
0.0950000000	and vocabulary
0.0950000000	and mnist
0.0950000000	and digits
0.0950000000	and healthy
0.0950000000	and measurements
0.0950000000	and requiring
0.0950000000	with approaches
0.0950000000	and works
0.0950000000	and treat
0.0950000000	and similarity
0.0950000000	and final
0.0950000000	and similar
0.0950000000	and performed
0.0950000000	and multiclass
0.0950000000	and propagation
0.0950000000	and computed
0.0950000000	and variance
0.0950000000	with weight
0.0950000000	with suitable
0.0950000000	and universal
0.0950000000	with feedback
0.0950000000	with model
0.0950000000	and relu
0.0950000000	and improved
0.0950000000	and operation
0.0950000000	with exponentially
0.0950000000	with automated
0.0950000000	and rewards
0.0950000000	and encoding
0.0950000000	and comparative
0.0950000000	with web
0.0950000000	and explicit
0.0950000000	with clear
0.0950000000	and distributions
0.0950000000	and lines
0.0950000000	and cover
0.0950000000	and annotated
0.0950000000	and digital
0.0950000000	with histogram
0.0950000000	and capability
0.0950000000	and diagnostic
0.0950000000	and technical
0.0950000000	with homogeneous
0.0950000000	and cast
0.0950000000	and preserving
0.0950000000	and capable
0.0950000000	with faster
0.0950000000	and sparsity
0.0950000000	and identifying
0.0950000000	and classified
0.0950000000	and nonmonotonic
0.0950000000	and observed
0.0950000000	and locations
0.0950000000	and values
0.0950000000	and twitter
0.0950000000	and extremely
0.0950000000	and entropy
0.0950000000	and networks
0.0950000000	and tedious
0.0950000000	and independently
0.0950000000	and relational
0.0950000000	and voting
0.0950000000	with auxiliary
0.0950000000	and intelligent
0.0950000000	and bioinformatics
0.0950000000	and unlike
0.0950000000	with normal
0.0950000000	with replacement
0.0950000000	and multimedia
0.0950000000	with artificial
0.0950000000	and include
0.0950000000	with sufficient
0.0950000000	and variation
0.0950000000	and ensemble
0.0950000000	and utilized
0.0950000000	and binary
0.0950000000	and ranks
0.0950000000	and adapts
0.0950000000	and f1
0.0950000000	and principles
0.0950000000	and databases
0.0950000000	and fewer
0.0950000000	and investigates
0.0950000000	with sentence
0.0950000000	and assessment
0.0950000000	with nested
0.0950000000	and attribute
0.0950000000	sequential algorithm
0.0950000000	with size
0.0950000000	and projected
0.0950000000	and extracts
0.0950000000	and strength
0.0950000000	with quality
0.0950000000	and hmdb51
0.0950000000	and assist
0.0950000000	and sentences
0.0950000000	and overcome
0.0950000000	and organization
0.0950000000	and numerical
0.0950000000	and simultaneous
0.0950000000	and relevance
0.0950000000	and addresses
0.0950000000	with sharp
0.0950000000	and details
0.0950000000	and exact
0.0950000000	and rigorous
0.0950000000	with recently
0.0950000000	and difficulty
0.0950000000	and exploration
0.0950000000	and precision
0.0950000000	and serves
0.0950000000	and studied
0.0950000000	and indoor
0.0950000000	and early
0.0950000000	and class
0.0950000000	with 30
0.0950000000	and enabling
0.0950000000	and manipulation
0.0950000000	and error
0.0950000000	and promising
0.0950000000	with original
0.0950000000	and tasks
0.0950000000	with mixed
0.0950000000	and correlated
0.0950000000	and place
0.0950000000	and carefully
0.0950000000	and template
0.0950000000	and cpu
0.0950000000	and generic
0.0950000000	and interactions
0.0950000000	and boost
0.0950000000	and shared
0.0950000000	and refining
0.0950000000	and recommendations
0.0950000000	and treatment
0.0950000000	and verified
0.0950000000	and cityscapes
0.0950000000	and editing
0.0950000000	and profile
0.0950000000	and mobile
0.0950000000	and recommendation
0.0950000000	and customers
0.0950000000	and activity
0.0950000000	and showed
0.0950000000	and maximize
0.0950000000	and outcomes
0.0950000000	and epistemic
0.0950000000	and examples
0.0950000000	with linguistic
0.0950000000	and incorporates
0.0950000000	and ucf101
0.0950000000	and execute
0.0950000000	and chaotic
0.0950000000	and normalized
0.0950000000	and scientific
0.0950000000	and written
0.0950000000	and calibration
0.0950000000	and scheduling
0.0950000000	with actual
0.0950000000	and substitution
0.0950000000	with precise
0.0950000000	and shapes
0.0950000000	with effective
0.0950000000	with statistical
0.0950000000	contain multiple
0.0950000000	and descriptions
0.0950000000	and wide
0.0950000000	and simplifies
0.0950000000	and outperform
0.0950000000	and enable
0.0950000000	and prevent
0.0950000000	and joint
0.0950000000	across images
0.0950000000	and legal
0.0950000000	and annotating
0.0950000000	and constructed
0.0950000000	and objective
0.0950000000	and sample
0.0950000000	and ambiguous
0.0950000000	and clothing
0.0950000000	and updates
0.0950000000	and confidence
0.0950000000	and health
0.0950000000	with functional
0.0950000000	and nonlocal
0.0950000000	and concise
0.0950000000	and 30
0.0950000000	and gain
0.0950000000	and rnns
0.0950000000	and misclassification
0.0950000000	and micro
0.0950000000	and principled
0.0950000000	and reporting
0.0950000000	and evidence
0.0950000000	and liu
0.0950000000	those features
0.0950000000	and topological
0.0950000000	and solution
0.0950000000	and code
0.0950000000	and illumination
0.0950000000	and discourse
0.0950000000	and philosophy
0.0950000000	and queries
0.0950000000	and vision
0.0950000000	and obtained
0.0950000000	and consistently
0.0950000000	with global
0.0950000000	and reconstructing
0.0950000000	and majority
0.0950000000	with 5
0.0950000000	and perceptual
0.0950000000	and standard
0.0950000000	and extracted
0.0950000000	with kernels
0.0950000000	and analytic
0.0950000000	and common
0.0950000000	and symmetric
0.0950000000	and basic
0.0950000000	and proved
0.0950000000	and economics
0.0950000000	and layers
0.0950000000	and blur
0.0950000000	and dynamical
0.0950000000	and generator
0.0950000000	and multivariate
0.0950000000	and draw
0.0950000000	and block
0.0950000000	and average
0.0950000000	and relationship
0.0950000000	and gray
0.0950000000	with fast
0.0950000000	and application
0.0950000000	and discrete
0.0950000000	and disjunctive
0.0950000000	and dissimilar
0.0950000000	and optimality
0.0950000000	and filter
0.0950000000	and release
0.0950000000	and frame
0.0950000000	and reference
0.0950000000	and acceleration
0.0950000000	and hierarchical
0.0950000000	and documents
0.0950000000	and enhancing
0.0950000000	and project
0.0950000000	and monitoring
0.0950000000	and regions
0.0950000000	and theoretical
0.0950000000	and combined
0.0950000000	with elements
0.0950000000	and pedestrian
0.0950000000	and weights
0.0950000000	and characters
0.0950000000	with reasonable
0.0950000000	and complementary
0.0950000000	and business
0.0950000000	and searching
0.0950000000	and mathematics
0.0950000000	and detailed
0.0950000000	and continuously
0.0950000000	and analysing
0.0950000000	and validated
0.0950000000	and ssim
0.0950000000	and decrease
0.0950000000	and point
0.0950000000	and unconstrained
0.0950000000	and deploying
0.0950000000	and correctly
0.0950000000	and potential
0.0950000000	and success
0.0950000000	and systematically
0.0950000000	and reaches
0.0950000000	and lasso
0.0950000000	and verification
0.0950000000	and dropout
0.0950000000	with possibly
0.0950000000	and adding
0.0950000000	and proofs
0.0950000000	and components
0.0950000000	and medical
0.0950000000	and jointly
0.0950000000	and additionally
0.0950000000	and deformation
0.0950000000	and parts
0.0950000000	and facilitate
0.0950000000	and domain
0.0950000000	and trajectory
0.0950000000	and counting
0.0950000000	with imperfect
0.0950000000	and typically
0.0950000000	and suitable
0.0950000000	and consistent
0.0950000000	and connections
0.0950000000	and resampling
0.0950000000	and contexts
0.0950000000	and discriminator
0.0950000000	and weaknesses
0.0950000000	and personal
0.0950000000	and asymptotically
0.0950000000	and adam
0.0950000000	and segments
0.0950000000	and qualitative
0.0950000000	and maximal
0.0950000000	and lambda
0.0950000000	with submodular
0.0950000000	and embedding
0.0950000000	and invariant
0.0950000000	and internal
0.0950000000	and iteratively
0.0950000000	with regularized
0.0950000000	and labeled
0.0950000000	and evolve
0.0950000000	and objects
0.0950000000	and implicitly
0.0950000000	well aligned
0.0950000000	and angular
0.0950000000	and relations
0.0950000000	even outperforms
0.0950000000	with extremely
0.0950000000	and integrating
0.0950000000	with external
0.0950000000	with implications
0.0950000000	and videos
0.0950000000	and receives
0.0950000000	and pareto
0.0950000000	and ontologies
0.0950000000	and length
0.0950000000	and developed
0.0950000000	and building
0.0950000000	and convolutional
0.0950000000	and handle
0.0950000000	and forms
0.0950000000	and web
0.0950000000	and labeling
0.0950000000	and regularization
0.0950000000	and slow
0.0950000000	and exploding
0.0950000000	and fisher
0.0950000000	and evolving
0.0950000000	and adversarial
0.0950000000	and sharp
0.0950000000	and correcting
0.0950000000	and form
0.0950000000	and applicable
0.0950000000	and drop
0.0950000000	and manual
0.0950000000	and biological
0.0950000000	and syntactic
0.0950000000	and actual
0.0950000000	and unreliable
0.0950000000	across datasets
0.0950000000	with multivariate
0.0950000000	and distortion
0.0950000000	and resolve
0.0950000000	and recover
0.0950000000	and hard
0.0950000000	and extensible
0.0950000000	and opinions
0.0950000000	those problems
0.0950000000	even higher
0.0950000000	with conventional
0.0950000000	and fail
0.0950000000	and contents
0.0950000000	with momentum
0.0950000000	and defining
0.0950000000	and hindi
0.0950000000	with manually
0.0950000000	and ant
0.0950000000	and users
0.0950000000	and minimum
0.0950000000	and places
0.0950000000	and refinement
0.0950000000	and illustrates
0.0950000000	and exploring
0.0950000000	and fed
0.0950000000	and children
0.0950000000	and deeper
0.0950000000	and flow
0.0950000000	and external
0.0950000000	with default
0.0950000000	and animals
0.0950000000	and minimizes
0.0950000000	and assign
0.0950000000	and additive
0.0950000000	and motivate
0.0950000000	and merge
0.0950000000	and generalizable
0.0950000000	and covering
0.0950000000	and encourage
0.0950000000	and linked
0.0950000000	and accelerate
0.0950000000	and histogram
0.0950000000	and fuse
0.0950000000	and air
0.0950000000	and guaranteed
0.0950000000	and spanish
0.0950000000	and reports
0.0950000000	and engineers
0.0950000000	and mri
0.0950000000	and detects
0.0950000000	and column
0.0950000000	and grammatical
0.0950000000	and uniform
0.0950000000	and pos
0.0950000000	and robots
0.0950000000	and satellite
0.0950000000	and behaviour
0.0950000000	and comments
0.0950000000	and specificity
0.0950000000	and body
0.0950000000	and imperfect
0.0950000000	and finance
0.0950000000	and readability
0.0950000000	with target
0.0950000000	and unstructured
0.0950000000	with expectation
0.0950000000	and benchmarks
0.0950000000	with potential
0.0950000000	and fitness
0.0950000000	with significant
0.0950000000	with feature
0.0950000000	and preferences
0.0950000000	with traditional
0.0950000000	with variable
0.0950000000	and survey
0.0950000000	with background
0.0950000000	and execution
0.0950000000	and ai
0.0950000000	and directional
0.0950000000	and utilize
0.0950000000	with correlated
0.0950000000	and biases
0.0950000000	and left
0.0950000000	and raw
0.0950000000	and conventional
0.0950000000	and removes
0.0950000000	and increase
0.0950000000	with ordered
0.0950000000	and poor
0.0950000000	and yield
0.0950000000	and initial
0.0950000000	and involve
0.0950000000	and scoring
0.0950000000	and hope
0.0950000000	and total
0.0950000000	and matching
0.0950000000	and hypothesis
0.0950000000	and facilitates
0.0950000000	and easily
0.0950000000	and smooth
0.0950000000	and variants
0.0950000000	and methodologies
0.0950000000	and problems
0.0950000000	and preserves
0.0950000000	and removing
0.0950000000	and quantitatively
0.0950000000	and cnn
0.0950000000	and stereo
0.0950000000	and represented
0.0950000000	and eventually
0.0950000000	and special
0.0950000000	and set
0.0950000000	and successfully
0.0950000000	and l2
0.0950000000	and feedback
0.0950000000	and substantially
0.0950000000	and loss
0.0950000000	and classical
0.0950000000	and regression
0.0950000000	with bounded
0.0950000000	and difficult
0.0950000000	and important
0.0950000000	and determines
0.0950000000	and recursive
0.0950000000	and theory
0.0950000000	and discover
0.0950000000	and pedestrians
0.0950000000	and ordering
0.0950000000	and resources
0.0950000000	and 20
0.0950000000	and progressively
0.0950000000	and involves
0.0950000000	and registration
0.0950000000	and dimension
0.0950000000	and arguments
0.0950000000	and precise
0.0950000000	and hyperparameter
0.0950000000	and popular
0.0950000000	and physics
0.0950000000	and suboptimal
0.0950000000	and previous
0.0950000000	and sets
0.0950000000	and holistic
0.0950000000	and gamma
0.0950000000	and slightly
0.0950000000	and explanations
0.0950000000	and identity
0.0950000000	and represent
0.0950000000	and implemented
0.0950000000	and inception
0.0950000000	and probability
0.0950000000	and largely
0.0950000000	and runtime
0.0950000000	and pca
0.0950000000	and artifacts
0.0950000000	and persistent
0.0950000000	and formal
0.0950000000	and develops
0.0950000000	and city
0.0950000000	and outcome
0.0950000000	and converges
0.0950000000	and academic
0.0950000000	and opportunities
0.0950000000	and quantified
0.0950000000	and studying
0.0950000000	and enhancement
0.0950000000	and medicine
0.0950000000	and internet
0.0950000000	and macro
0.0950000000	and timely
0.0950000000	well structured
0.0950000000	interest e.g
0.0950000000	and locality
0.0950000000	and 10
0.0950000000	with restricted
0.0950000000	with scarce
0.0950000000	and score
0.0950000000	and attention
0.0950000000	sequential sampling
0.0950000000	even outperform
0.0950000000	with gradient
0.0950000000	with spatial
0.0950000000	and adjust
0.0950000000	with distinct
0.0950000000	uses convolutional
0.0950000000	and reactive
0.0950000000	and count
0.0950000000	and write
0.0950000000	and negation
0.0950000000	and fitting
0.0950000000	and googlenet
0.0950000000	and blogs
0.0950000000	and verbs
0.0950000000	next state
0.0950000000	a pyramid
0.0950000000	a subjective
0.0950000000	a spatiotemporal
0.0950000000	a dependence
0.0950000000	like neural
0.0950000000	a standardized
0.0950000000	in areas
0.0950000000	in uncontrolled
0.0950000000	available resources
0.0950000000	a varying
0.0950000000	or close
0.0950000000	a true
0.0950000000	a biased
0.0950000000	a semantically
0.0950000000	a signature
0.0950000000	a discriminatively
0.0950000000	under constraints
0.0950000000	a probe
0.0950000000	or specific
0.0950000000	in combining
0.0950000000	in log
0.0950000000	a smartphone
0.0950000000	a learnable
0.0950000000	a normalization
0.0950000000	a circular
0.0950000000	a security
0.0950000000	a seed
0.0950000000	in biological
0.0950000000	in public
0.0950000000	a modeling
0.0950000000	in educational
0.0950000000	a customer
0.0950000000	a days
0.0950000000	a suboptimal
0.0950000000	under conditions
0.0950000000	a bit
0.0950000000	under development
0.0950000000	in classical
0.0950000000	in probabilistic
0.0950000000	available databases
0.0950000000	available knowledge
0.0950000000	a rgb
0.0950000000	in accurate
0.0950000000	in numerical
0.0950000000	in bleu
0.0950000000	in wide
0.0950000000	in respect
0.0950000000	a simplification
0.0950000000	in efficiency
0.0950000000	describe images
0.0950000000	four classes
0.0950000000	four challenging
0.0950000000	four methods
0.0950000000	four datasets
0.0950000000	without learning
0.0950000000	in addressing
0.0950000000	under minimal
0.0950000000	in application
0.0950000000	in exploiting
0.0950000000	a forward
0.0950000000	or gaussian
0.0950000000	a differential
0.0950000000	or natural
0.0950000000	in approximating
0.0950000000	in robot
0.0950000000	a twofold
0.0950000000	in matlab
0.0950000000	under adversarial
0.0950000000	a dependent
0.0950000000	in service
0.0950000000	in search
0.0950000000	in previously
0.0950000000	a hardware
0.0950000000	in lower
0.0950000000	four algorithms
0.0950000000	in early
0.0950000000	in ways
0.0950000000	a diagnostic
0.0950000000	a svm
0.0950000000	four main
0.0950000000	in virtual
0.0950000000	or features
0.0950000000	in restricted
0.0950000000	in quadratic
0.0950000000	in cascade
0.0950000000	in quantitative
0.0950000000	under incomplete
0.0950000000	available dataset
0.0950000000	in scene
0.0950000000	in massive
0.0950000000	or text
0.0950000000	in 7
0.0950000000	whole video
0.0950000000	whole image
0.0950000000	whole network
0.0950000000	in adverse
0.0950000000	in synthetic
0.0950000000	whole process
0.0950000000	or network
0.0950000000	a working
0.0950000000	or word
0.0950000000	in advancing
0.0950000000	a perceptual
0.0950000000	or neural
0.0950000000	a bootstrapping
0.0950000000	a principal
0.0950000000	a recommendation
0.0950000000	a fused
0.0950000000	like model
0.0950000000	in point
0.0950000000	a mere
0.0950000000	in conditional
0.0950000000	in providing
0.0950000000	a multitask
0.0950000000	in rnns
0.0950000000	a generation
0.0950000000	in mdps
0.0950000000	a spherical
0.0950000000	in specific
0.0950000000	in contemporary
0.0950000000	in relative
0.0950000000	a distorted
0.0950000000	in details
0.0950000000	a million
0.0950000000	in tasks
0.0950000000	in basic
0.0950000000	in mathematics
0.0950000000	in small
0.0950000000	or lower
0.0950000000	in automated
0.0950000000	a painting
0.0950000000	a technical
0.0950000000	a concentration
0.0950000000	under high
0.0950000000	in global
0.0950000000	a string
0.0950000000	or semantic
0.0950000000	a concatenation
0.0950000000	a gating
0.0950000000	or expensive
0.0950000000	a conversation
0.0950000000	a transparent
0.0950000000	or outperforms
0.0950000000	in camera
0.0950000000	in french
0.0950000000	in regular
0.0950000000	a position
0.0950000000	in neuroimaging
0.0950000000	like image
0.0950000000	under challenging
0.0950000000	under real
0.0950000000	under similar
0.0950000000	under controlled
0.0950000000	or 2
0.0950000000	under study
0.0950000000	under multiple
0.0950000000	under specific
0.0950000000	under random
0.0950000000	under natural
0.0950000000	under strong
0.0950000000	under general
0.0950000000	under complete
0.0950000000	under noisy
0.0950000000	under standard
0.0950000000	under suitable
0.0950000000	under partial
0.0950000000	in efficient
0.0950000000	under noise
0.0950000000	a laser
0.0950000000	in 10
0.0950000000	in quality
0.0950000000	in free
0.0950000000	in generative
0.0950000000	in 2d
0.0950000000	in control
0.0950000000	in language
0.0950000000	in optimizing
0.0950000000	in statistical
0.0950000000	a moment
0.0950000000	a compelling
0.0950000000	in humans
0.0950000000	in memory
0.0950000000	in simple
0.0950000000	in super
0.0950000000	in sentences
0.0950000000	in power
0.0950000000	in precision
0.0950000000	a grayscale
0.0950000000	in hybrid
0.0950000000	a copy
0.0950000000	a repeated
0.0950000000	available methods
0.0950000000	available database
0.0950000000	available web
0.0950000000	available video
0.0950000000	available multi
0.0950000000	a localized
0.0950000000	available benchmark
0.0950000000	available algorithms
0.0950000000	available benchmarks
0.0950000000	available information
0.0950000000	available unlabeled
0.0950000000	available corpora
0.0950000000	available datasets
0.0950000000	d images
0.0950000000	in cognition
0.0950000000	a multiobjective
0.0950000000	under weak
0.0950000000	in removing
0.0950000000	under explored
0.0950000000	in generalized
0.0950000000	per sample
0.0950000000	without significant
0.0950000000	in scenes
0.0950000000	especially important
0.0950000000	in inductive
0.0950000000	a bad
0.0950000000	in engineering
0.0950000000	in link
0.0950000000	a longer
0.0950000000	a skill
0.0950000000	a box
0.0950000000	in cite
0.0950000000	a french
0.0950000000	a pomdp
0.0950000000	like features
0.0950000000	a compression
0.0950000000	a widespread
0.0950000000	a consumer
0.0950000000	a society
0.0950000000	10 datasets
0.0950000000	a temporally
0.0950000000	a defense
0.0950000000	or tracking
0.0950000000	a market
0.0950000000	or videos
0.0950000000	a stereo
0.0950000000	a plant
0.0950000000	a shortest
0.0950000000	a multinomial
0.0950000000	a multiclass
0.0950000000	a flat
0.0950000000	a periodic
0.0950000000	a predicate
0.0950000000	or point
0.0950000000	or graphs
0.0950000000	in highly
0.0950000000	a semidefinite
0.0950000000	a relaxed
0.0950000000	or cross
0.0950000000	a hebbian
0.0950000000	or mixed
0.0950000000	a native
0.0950000000	a hyperplane
0.0950000000	a reverse
0.0950000000	or reduce
0.0950000000	or fail
0.0950000000	a numerically
0.0950000000	in astronomy
0.0950000000	or post
0.0950000000	in cnns
0.0950000000	a controllable
0.0950000000	in java
0.0950000000	a prolog
0.0950000000	like structure
0.0950000000	like deep
0.0950000000	or clustering
0.0950000000	a straight
0.0950000000	a deeply
0.0950000000	or regression
0.0950000000	a barrier
0.0950000000	a picture
0.0950000000	or adversarial
0.0950000000	a wireless
0.0950000000	a ubiquitous
0.0950000000	a cycle
0.0950000000	or partially
0.0950000000	a master
0.0950000000	a numeric
0.0950000000	or fine
0.0950000000	a configuration
0.0950000000	or online
0.0950000000	a transformed
0.0950000000	in production
0.0950000000	a heavy
0.0950000000	a divide
0.0950000000	or unknown
0.0950000000	a direction
0.0950000000	or low
0.0950000000	a cosine
0.0950000000	or long
0.0950000000	or global
0.0950000000	or speech
0.0950000000	or automatically
0.0950000000	a crf
0.0950000000	or task
0.0950000000	or regions
0.0950000000	or gradient
0.0950000000	or hard
0.0950000000	or tasks
0.0950000000	under limited
0.0950000000	or words
0.0950000000	a backward
0.0950000000	or context
0.0950000000	a compound
0.0950000000	or images
0.0950000000	a measurement
0.0950000000	in convergence
0.0950000000	or learned
0.0950000000	in dempster
0.0950000000	a scaling
0.0950000000	a boltzmann
0.0950000000	a tracker
0.0950000000	or linear
0.0950000000	a literal
0.0950000000	a solver
0.0950000000	a late
0.0950000000	a morphologically
0.0950000000	in studying
0.0950000000	a volume
0.0950000000	in fast
0.0950000000	in biology
0.0950000000	in russian
0.0950000000	or graph
0.0950000000	in popularity
0.0950000000	a scaled
0.0950000000	in demand
0.0950000000	in algorithmic
0.0950000000	a stand
0.0950000000	a car
0.0950000000	a bootstrap
0.0950000000	without training
0.0950000000	or dense
0.0950000000	like algorithm
0.0950000000	in cluttered
0.0950000000	a gated
0.0950000000	in dense
0.0950000000	or random
0.0950000000	in wireless
0.0950000000	or scene
0.0950000000	or similar
0.0950000000	a thousand
0.0950000000	or absence
0.0950000000	a remote
0.0950000000	a provably
0.0950000000	or large
0.0950000000	d dataset
0.0950000000	a procedural
0.0950000000	in finance
0.0950000000	a protocol
0.0950000000	in poor
0.0950000000	a fairly
0.0950000000	in 2011
0.0950000000	a schema
0.0950000000	in actual
0.0950000000	a paper
0.0950000000	in functional
0.0950000000	a pragmatic
0.0950000000	a derivation
0.0950000000	a multiresolution
0.0950000000	a vanishing
0.0950000000	a boosted
0.0950000000	a partitioning
0.0950000000	or approximate
0.0950000000	a collapsed
0.0950000000	a history
0.0950000000	a generalised
0.0950000000	a 30
0.0950000000	in multimedia
0.0950000000	a square
0.0950000000	or background
0.0950000000	in uncertain
0.0950000000	a conversational
0.0950000000	a foreground
0.0950000000	a dice
0.0950000000	in physics
0.0950000000	a dog
0.0950000000	or human
0.0950000000	a peak
0.0950000000	a runtime
0.0950000000	or costly
0.0950000000	a customized
0.0950000000	in intelligent
0.0950000000	a seamless
0.0950000000	in extremely
0.0950000000	a segment
0.0950000000	a reversible
0.0950000000	a rapidly
0.0950000000	in earlier
0.0950000000	a 12
0.0950000000	a metaheuristic
0.0950000000	a conservative
0.0950000000	a marginal
0.0950000000	a hinge
0.0950000000	a planar
0.0950000000	or semi
0.0950000000	in methods
0.0950000000	in cross
0.0950000000	a lipschitz
0.0950000000	a physically
0.0950000000	a spatially
0.0950000000	a sublinear
0.0950000000	a gradual
0.0950000000	a command
0.0950000000	a characteristic
0.0950000000	or clusters
0.0950000000	a compressive
0.0950000000	or spatial
0.0950000000	a white
0.0950000000	a computing
0.0950000000	a limit
0.0950000000	a neutral
0.0950000000	or information
0.0950000000	a correction
0.0950000000	a rapid
0.0950000000	a serial
0.0950000000	a body
0.0950000000	corresponding features
0.0950000000	a labeled
0.0950000000	a chance
0.0950000000	or domain
0.0950000000	a book
0.0950000000	a lifted
0.0950000000	or simple
0.0950000000	or classification
0.0950000000	a tremendous
0.0950000000	a schedule
0.0950000000	a permutation
0.0950000000	a passive
0.0950000000	or ii
0.0950000000	in recovering
0.0950000000	in molecular
0.0950000000	a chosen
0.0950000000	a concave
0.0950000000	a smoothing
0.0950000000	a city
0.0950000000	a tunable
0.0950000000	a homogeneous
0.0950000000	a calibrated
0.0950000000	a difference
0.0950000000	a reactive
0.0950000000	a monotone
0.0950000000	a session
0.0950000000	a subtle
0.0950000000	a truncated
0.0950000000	a laborious
0.0950000000	or language
0.0950000000	or phrases
0.0950000000	or action
0.0950000000	a cellular
0.0950000000	a conjunction
0.0950000000	a densely
0.0950000000	a reweighted
0.0950000000	a nice
0.0950000000	a microscope
0.0950000000	a conjugate
0.0950000000	a ball
0.0950000000	in crowded
0.0950000000	corresponding image
0.0950000000	a daily
0.0950000000	a symbol
0.0950000000	a cheap
0.0950000000	a sphere
0.0950000000	in turkish
0.0950000000	or high
0.0950000000	a textit
0.0950000000	or physical
0.0950000000	in audio
0.0950000000	in multilingual
0.0950000000	in processing
0.0950000000	a historical
0.0950000000	a safety
0.0950000000	a proposition
0.0950000000	in database
0.0950000000	a geometrical
0.0950000000	a competing
0.0950000000	a planner
0.0950000000	a requirement
0.0950000000	in distributional
0.0950000000	a marked
0.0950000000	in cellular
0.0950000000	a nvidia
0.0950000000	a quantity
0.0950000000	a coordinate
0.0950000000	a desktop
0.0950000000	or rules
0.0950000000	a behavioral
0.0950000000	or sentiment
0.0950000000	or entities
0.0950000000	in constrained
0.0950000000	a nontrivial
0.0950000000	in words
0.0950000000	a surprisingly
0.0950000000	a design
0.0950000000	in edge
0.0950000000	a regime
0.0950000000	in representing
0.0950000000	or comparable
0.0950000000	a multidimensional
0.0950000000	or lack
0.0950000000	in databases
0.0950000000	in structural
0.0950000000	in superior
0.0950000000	in linguistics
0.0950000000	a guarantee
0.0950000000	in discourse
0.0950000000	in 2016
0.0950000000	in optimization
0.0950000000	in personalized
0.0950000000	a column
0.0950000000	or 3
0.0950000000	in spanish
0.0950000000	in philosophy
0.0950000000	or parameters
0.0950000000	a guide
0.0950000000	in post
0.0950000000	a weighting
0.0950000000	in random
0.0950000000	in surveillance
0.0950000000	in formation
0.0950000000	in integrating
0.0950000000	a mental
0.0950000000	a discrimination
0.0950000000	a subsequent
0.0950000000	in patients
0.0950000000	or training
0.0950000000	a pivot
0.0950000000	a skip
0.0950000000	a contribution
0.0950000000	in character
0.0950000000	in multilayer
0.0950000000	or impossible
0.0950000000	a pedestrian
0.0950000000	or group
0.0950000000	a wrapper
0.0950000000	in producing
0.0950000000	in semantically
0.0950000000	a running
0.0950000000	in regions
0.0950000000	per video
0.0950000000	a rigid
0.0950000000	or noisy
0.0950000000	in characterizing
0.0950000000	in preserving
0.0950000000	a friendly
0.0950000000	a statement
0.0950000000	1 3
0.0950000000	a satisfactory
0.0950000000	in infinite
0.0950000000	a table
0.0950000000	in present
0.0950000000	or unsupervised
0.0950000000	in customer
0.0950000000	in distinguishing
0.0950000000	a novelty
0.0950000000	a visually
0.0950000000	in gene
0.0950000000	or items
0.0950000000	a provable
0.0950000000	in technical
0.0950000000	in contexts
0.0950000000	in implementing
0.0950000000	in generic
0.0950000000	a jointly
0.0950000000	in fine
0.0950000000	a half
0.0950000000	a starting
0.0950000000	in formal
0.0950000000	a root
0.0950000000	in constructing
0.0950000000	in academia
0.0950000000	in deriving
0.0950000000	a trend
0.0950000000	a boosting
0.0950000000	a 15
0.0950000000	or fully
0.0950000000	in exponential
0.0950000000	in degree
0.0950000000	in diagnosis
0.0950000000	in life
0.0950000000	a decent
0.0950000000	in context
0.0950000000	a norm
0.0950000000	or computational
0.0950000000	in research
0.0950000000	a manual
0.0950000000	a gap
0.0950000000	or continuous
0.0950000000	in computing
0.0950000000	in single
0.0950000000	in significant
0.0950000000	a capacity
0.0950000000	in portuguese
0.0950000000	a middle
0.0950000000	a generally
0.0950000000	a stage
0.0950000000	in similar
0.0950000000	a reasoning
0.0950000000	a physics
0.0950000000	in maximum
0.0950000000	a price
0.0950000000	in special
0.0950000000	in diverse
0.0950000000	a multilevel
0.0950000000	in medicine
0.0950000000	in dynamical
0.0950000000	in python
0.0950000000	or incomplete
0.0950000000	in downstream
0.0950000000	a bilingual
0.0950000000	or dynamic
0.0950000000	in compressed
0.0950000000	a mathematically
0.0950000000	in settings
0.0950000000	a targeted
0.0950000000	in sentence
0.0950000000	a histogram
0.0950000000	a multiplicative
0.0950000000	in feedforward
0.0950000000	in making
0.0950000000	or visual
0.0950000000	in unknown
0.0950000000	whole framework
0.0950000000	in test
0.0950000000	in discovering
0.0950000000	in partially
0.0950000000	or missing
0.0950000000	in separate
0.0950000000	in ontologies
0.0950000000	in graphs
0.0950000000	in decoding
0.0950000000	a largely
0.0950000000	in mathematical
0.0950000000	in commercial
0.0950000000	in weakly
0.0950000000	a treatment
0.0950000000	in inference
0.0950000000	a totally
0.0950000000	in finite
0.0950000000	in closed
0.0950000000	a tendency
0.0950000000	in close
0.0950000000	a cpu
0.0950000000	in robotic
0.0950000000	in models
0.0950000000	in unseen
0.0950000000	in hidden
0.0950000000	a coupled
0.0950000000	like method
0.0950000000	in competitive
0.0950000000	a device
0.0950000000	in matching
0.0950000000	in common
0.0950000000	in managing
0.0950000000	in 4
0.0950000000	a connectionist
0.0950000000	or video
0.0950000000	a mass
0.0950000000	in searching
0.0950000000	a specially
0.0950000000	or negative
0.0950000000	in viewpoint
0.0950000000	a 7
0.0950000000	a wrong
0.0950000000	in lexical
0.0950000000	or multi
0.0950000000	in wordnet
0.0950000000	a tiny
0.0950000000	in achieving
0.0950000000	in substantial
0.0950000000	in vision
0.0950000000	in improved
0.0950000000	in abstract
0.0950000000	without manual
0.0950000000	in robust
0.0950000000	a properly
0.0950000000	in direct
0.0950000000	a traffic
0.0950000000	in adaptive
0.0950000000	d video
0.0950000000	in effect
0.0950000000	or hand
0.0950000000	a thresholding
0.0950000000	a matlab
0.0950000000	in industrial
0.0950000000	in scientific
0.0950000000	a 4
0.0950000000	or statistical
0.0950000000	in unlabeled
0.0950000000	a missing
0.0950000000	in photo
0.0950000000	in recall
0.0950000000	in hierarchical
0.0950000000	in reproducing
0.0950000000	a monotonic
0.0950000000	in limited
0.0950000000	in conclusion
0.0950000000	in pixel
0.0950000000	in motion
0.0950000000	in psychology
0.0950000000	in parts
0.0950000000	a simultaneous
0.0950000000	in 2015
0.0950000000	a setup
0.0950000000	in textual
0.0950000000	in 2010
0.0950000000	in applications
0.0950000000	in building
0.0950000000	in local
0.0950000000	in extracting
0.0950000000	or improved
0.0950000000	a processing
0.0950000000	a separable
0.0950000000	in noise
0.0950000000	in biomedical
0.0950000000	a suitably
0.0950000000	a counter
0.0950000000	in discrete
0.0950000000	in charge
0.0950000000	a crowdsourcing
0.0950000000	in security
0.0950000000	in pairwise
0.0950000000	a ratio
0.0950000000	in generating
0.0950000000	in chest
0.0950000000	in size
0.0950000000	in daily
0.0950000000	a minimization
0.0950000000	in rgb
0.0950000000	a capability
0.0950000000	in histopathology
0.0950000000	a lifelong
0.0950000000	in population
0.0950000000	in modeling
0.0950000000	in resource
0.0950000000	a consistency
0.0950000000	in interaction
0.0950000000	a spike
0.0950000000	in automotive
0.0950000000	in electronic
0.0950000000	a production
0.0950000000	a restriction
0.0950000000	in deterministic
0.0950000000	a raw
0.0950000000	in replacement
0.0950000000	in selecting
0.0950000000	a neuro
0.0950000000	in running
0.0950000000	a record
0.0950000000	a complexity
0.0950000000	in number
0.0950000000	in conventional
0.0950000000	in multiagent
0.0950000000	or noise
0.0950000000	in modelling
0.0950000000	in society
0.0950000000	in popular
0.0950000000	a em
0.0950000000	in obtaining
0.0950000000	a severe
0.0950000000	or learning
0.0950000000	a frequently
0.0950000000	in connection
0.0950000000	a selected
0.0950000000	in estimating
0.0950000000	a succinct
0.0950000000	in finding
0.0950000000	in 12
0.0950000000	a 50
0.0950000000	in symbolic
0.0950000000	in pose
0.0950000000	in weighted
0.0950000000	in speed
0.0950000000	a plain
0.0950000000	in indoor
0.0950000000	in dimensionality
0.0950000000	in additional
0.0950000000	in interactive
0.0950000000	a synthesis
0.0950000000	a company
0.0950000000	in simulated
0.0950000000	a gamma
0.0950000000	in progress
0.0950000000	in generalizing
0.0950000000	in increasing
0.0950000000	in topic
0.0950000000	in semeval
0.0950000000	in measuring
0.0950000000	a distinctive
0.0950000000	5 error
0.0950000000	in everyday
0.0950000000	in extending
0.0950000000	a bayes
0.0950000000	a dynamically
0.0950000000	in categorical
0.0950000000	in larger
0.0950000000	in sports
0.0950000000	in significantly
0.0950000000	a success
0.0950000000	a creative
0.0950000000	in documents
0.0950000000	in theoretical
0.0950000000	in empirical
0.0950000000	1 accuracy
0.0950000000	in normal
0.0950000000	a par
0.0950000000	in scaling
0.0950000000	in directed
0.0950000000	in multivariate
0.0950000000	a plane
0.0950000000	in randomized
0.0950000000	in faster
0.0950000000	in expressive
0.0950000000	a 10
0.0950000000	a feasibility
0.0950000000	a voting
0.0950000000	in analyzing
0.0950000000	in exact
0.0950000000	like random
0.0950000000	a breakthrough
0.0950000000	a defined
0.0950000000	in development
0.0950000000	in expected
0.0950000000	in repeated
0.0950000000	a mild
0.0950000000	a closer
0.0950000000	in industry
0.0950000000	a selective
0.0950000000	a hypothetical
0.0950000000	in typical
0.0950000000	in applied
0.0950000000	or require
0.0950000000	in reading
0.0950000000	in design
0.0950000000	in document
0.0950000000	or distributed
0.0950000000	or models
0.0950000000	in controlled
0.0950000000	in compressive
0.0950000000	a diversity
0.0950000000	in evaluating
0.0950000000	a computation
0.0950000000	a mask
0.0950000000	in communication
0.0950000000	a gate
0.0950000000	a divergence
0.0950000000	a strength
0.0950000000	in localization
0.0950000000	in choosing
0.0950000000	in uncertainty
0.0950000000	a conjecture
0.0950000000	in experimental
0.0950000000	a musical
0.0950000000	in return
0.0950000000	or provide
0.0950000000	per step
0.0950000000	or binary
0.0950000000	in fixed
0.0950000000	in latent
0.0950000000	in optimal
0.0950000000	a modest
0.0950000000	or local
0.0950000000	in 2001
0.0950000000	or state
0.0950000000	or infinite
0.0950000000	in languages
0.0950000000	in brain
0.0950000000	in clutter
0.0950000000	in boolean
0.0950000000	in run
0.0950000000	in homogeneous
0.0950000000	in imaging
0.0950000000	in situation
0.0950000000	a carefully
0.0950000000	in nonlinear
0.0950000000	or similarity
0.0950000000	in autonomous
0.0950000000	a necessity
0.0950000000	in analogy
0.0950000000	a ground
0.0950000000	in traditional
0.0950000000	in physical
0.0950000000	a blind
0.0950000000	or discrete
0.0950000000	a route
0.0950000000	a dimension
0.0950000000	a verb
0.0950000000	or implicitly
0.0950000000	in observational
0.0950000000	like human
0.0950000000	or competitive
0.0950000000	a left
0.0950000000	in stochastic
0.0950000000	a complicated
0.0950000000	in monocular
0.0950000000	or superior
0.0950000000	in existing
0.0950000000	a photo
0.0950000000	a disentangled
0.0950000000	or learn
0.0950000000	a bilinear
0.0950000000	or irrelevant
0.0950000000	a live
0.0950000000	a comment
0.0950000000	a descriptive
0.0950000000	or temporal
0.0950000000	in bipartite
0.0950000000	a demanding
0.0950000000	a perspective
0.0950000000	a parametrized
0.0950000000	1 loss
0.0950000000	in defining
0.0950000000	in house
0.0950000000	or super
0.0950000000	a renewed
0.0950000000	a relevance
0.0950000000	in space
0.0950000000	or change
0.0950000000	in suboptimal
0.0950000000	a filtering
0.0950000000	in automatic
0.0950000000	in canonical
0.0950000000	a wearable
0.0950000000	a medium
0.0950000000	or multiple
0.0950000000	a prescribed
0.0950000000	in complexity
0.0950000000	four standard
0.0950000000	in statistics
0.0950000000	in predictive
0.0950000000	a striking
0.0950000000	a java
0.0950000000	or 3d
0.0950000000	a projected
0.0950000000	in nmt
0.0950000000	a handwritten
0.0950000000	a star
0.0950000000	a visualization
0.0950000000	a toolbox
0.0950000000	a drastic
0.0950000000	in important
0.0950000000	in past
0.0950000000	a na
0.0950000000	in 5
0.0950000000	in creating
0.0950000000	in convolutional
0.0950000000	a hyper
0.0950000000	a constructive
0.0950000000	a narrow
0.0950000000	or feature
0.0950000000	a surveillance
0.0950000000	a convergent
0.0950000000	a supervisory
0.0950000000	a workflow
0.0950000000	a changing
0.0950000000	in realistic
0.0950000000	a considerably
0.0950000000	in outdoor
0.0950000000	in algorithms
0.0950000000	in appearance
0.0950000000	in heterogeneous
0.0950000000	a poor
0.0950000000	a rectangular
0.0950000000	in missing
0.0950000000	a fault
0.0950000000	a feedforward
0.0950000000	in linguistic
0.0950000000	in arbitrary
0.0950000000	in sequences
0.0950000000	in error
0.0950000000	in severe
0.0950000000	a perturbation
0.0950000000	or probabilistic
0.0950000000	or approximately
0.0950000000	a child
0.0950000000	a paragraph
0.0950000000	or search
0.0950000000	in variable
0.0950000000	in consecutive
0.0950000000	or structured
0.0950000000	or character
0.0950000000	a material
0.0950000000	a graphics
0.0950000000	or stochastic
0.0950000000	a regressor
0.0950000000	in description
0.0950000000	in hardware
0.0950000000	a 6
0.0950000000	a crisp
0.0950000000	in inferring
0.0950000000	in classifying
0.0950000000	a denoising
0.0950000000	in subsequent
0.0950000000	in fewer
0.0950000000	a recipe
0.0950000000	in simulations
0.0950000000	in tplp
0.0950000000	a reconstruction
0.0950000000	a lagrangian
0.0950000000	or complex
0.0950000000	a derivative
0.0950000000	a conclusion
0.0950000000	without human
0.0950000000	in metric
0.0950000000	in spoken
0.0950000000	in mining
0.0950000000	in unstructured
0.0950000000	a curriculum
0.0950000000	a finer
0.0950000000	a predicted
0.0950000000	in approximate
0.0950000000	a triplet
0.0950000000	a world
0.0950000000	or knowledge
0.0950000000	a 5
0.0950000000	a fundamentally
0.0950000000	in mixed
0.0950000000	a remarkably
0.0950000000	in critical
0.0950000000	in spatial
0.0950000000	a hot
0.0950000000	like humans
0.0950000000	a standalone
0.0950000000	a century
0.0950000000	in individual
0.0950000000	in computation
0.0950000000	in concept
0.0950000000	a principle
0.0950000000	or explicit
0.0950000000	in tensor
0.0950000000	a demonstration
0.0950000000	in scenarios
0.0950000000	a perceptron
0.0950000000	a shorter
0.0950000000	a normalized
0.0950000000	in dimension
0.0950000000	a limiting
0.0950000000	a development
0.0950000000	a correlation
0.0950000000	a current
0.0950000000	in successive
0.0950000000	a randomly
0.0950000000	a smoothness
0.0950000000	a delay
0.0950000000	a median
0.0950000000	a micro
0.0950000000	a noticeable
0.0950000000	a salient
0.0950000000	a strategic
0.0950000000	a project
0.0950000000	without pre
0.0950000000	a parsimonious
0.0950000000	a collective
0.0950000000	a foreign
0.0950000000	a kernelized
0.0950000000	a connected
0.0950000000	a trace
0.0950000000	a theoretically
0.0950000000	a diagonal
0.0950000000	a tailored
0.0950000000	a trial
0.0950000000	a timely
0.0950000000	in groups
0.0950000000	a negligible
0.0950000000	a strictly
0.0950000000	a mahalanobis
0.0950000000	or networks
0.0950000000	a deductive
0.0950000000	corresponding feature
0.0950000000	a deformable
0.0950000000	in word
0.0950000000	a minute
0.0950000000	in fundus
0.0950000000	1 error
0.0950000000	1 regularization
0.0950000000	1 regularized
0.0950000000	in automatically
0.0950000000	or shape
0.0950000000	a semiparametric
0.0950000000	in writing
0.0950000000	in average
0.0950000000	in emotion
0.0950000000	in evaluation
0.0950000000	in great
0.0950000000	in performing
0.0950000000	in parameter
0.0950000000	in sparsity
0.0950000000	in dataset
0.0950000000	in neuroscience
0.0950000000	in conflict
0.0950000000	d image
0.0950000000	d datasets
0.0950000000	in prediction
0.0950000000	in fields
0.0950000000	in frequency
0.0950000000	in analysis
0.0950000000	in overcoming
0.0950000000	in clusters
0.0950000000	a failure
0.0950000000	in perplexity
0.0950000000	d based
0.0950000000	in science
0.0950000000	in exploratory
0.0950000000	in current
0.0950000000	in joint
0.0950000000	in healthcare
0.0950000000	in collaborative
0.0950000000	in pre
0.0950000000	in cooperative
0.0950000000	in grid
0.0950000000	or deep
0.0950000000	per layer
0.0950000000	a slow
0.0950000000	a strongly
0.0950000000	or prior
0.0950000000	a road
0.0950000000	a ranked
0.0950000000	a billion
0.0950000000	in adversarial
0.0950000000	a reality
0.0950000000	a separation
0.0950000000	a trade
0.0950000000	a complement
0.0950000000	a softmax
0.0950000000	a website
0.0950000000	a prototypical
0.0950000000	a landmark
0.0950000000	a financial
0.0950000000	a null
0.0950000000	a cumulative
0.0950000000	a compiler
0.0950000000	a computerized
0.0950000000	a costly
0.0950000000	a hospital
0.0950000000	or manually
0.0950000000	in related
0.0950000000	a maximal
0.0950000000	a cumbersome
0.0950000000	a satisfying
0.0950000000	a pivotal
0.0950000000	like learning
0.0950000000	a counterexample
0.0950000000	without strong
0.0950000000	like object
0.0950000000	without significantly
0.0950000000	a normative
0.0950000000	a hopfield
0.0950000000	a frequent
0.0950000000	a pca
0.0950000000	a sparsely
0.0950000000	a cooperative
0.0950000000	a discretized
0.0950000000	a proximity
0.0950000000	a 20
0.0950000000	a theorem
0.0950000000	a sign
0.0950000000	a safe
0.0950000000	10 3
0.0950000000	a room
0.0950000000	or false
0.0950000000	in applying
0.0950000000	in question
0.0950000000	in segmenting
0.0950000000	in economics
0.0950000000	in low
0.0950000000	in news
0.0950000000	in challenging
0.0950000000	in regression
0.0950000000	1 score
0.0950000000	in testing
0.0950000000	in datasets
0.0950000000	in written
0.0950000000	in exploring
0.0950000000	in meta
0.0950000000	a run
0.0950000000	1 5
0.0950000000	in standard
0.0950000000	in difficult
0.0950000000	in tackling
0.0950000000	in describing
0.0950000000	a dominant
0.0950000000	in gan
0.0950000000	in nonparametric
0.0950000000	in advanced
0.0950000000	a semantics
0.0940000000	of convolutional neural networks for
0.0940000000	the data at
0.0940000000	of many of
0.0940000000	a time and
0.0940000000	of errors in
0.0940000000	for classification in
0.0940000000	the document and
0.0940000000	this time
0.0940000000	each one
0.0940000000	the under
0.0940000000	the specified
0.0930000000	and lower bounds for
0.0930000000	work provides
0.0930000000	from non
0.0930000000	often ignored
0.0930000000	also found
0.0930000000	way for
0.0930000000	2015 and
0.0920000000	of sentences and
0.0920000000	and diagnosis of
0.0920000000	an image from
0.0920000000	these algorithms to
0.0920000000	a key to
0.0920000000	overall accuracy of
0.0920000000	the signal in
0.0920000000	the dynamics in
0.0920000000	to construct and
0.0920000000	the environment and
0.0920000000	this work provides
0.0920000000	of interest and
0.0920000000	a graph g
0.0920000000	the literature of
0.0920000000	and most of
0.0920000000	for reasoning in
0.0920000000	the future of
0.0920000000	b c
0.0920000000	system while
0.0920000000	to put
0.0920000000	f with
0.0910000000	the latent variables and
0.0910000000	the number of people
0.0910000000	of neural networks for
0.0910000000	as well as with
0.0910000000	top down and
0.0910000000	and appearance of
0.0910000000	an image as
0.0910000000	well as with
0.0910000000	to build and
0.0910000000	of mathbb r
0.0910000000	different type of
0.0910000000	the motion and
0.0910000000	different languages and
0.0910000000	these methods and
0.0910000000	the proposed work
0.0910000000	the problem using
0.0910000000	the improvement in
0.0910000000	this algorithm in
0.0910000000	at most o
0.0910000000	and relations in
0.0910000000	from images and
0.0910000000	right to
0.0910000000	than more
0.0910000000	for people
0.0910000000	for p
0.0900000000	well as for
0.0890000000	the art algorithms for
0.0890000000	the influence of different
0.0890000000	a neural network to
0.0890000000	the object of
0.0890000000	time series with
0.0890000000	of knowledge from
0.0890000000	of information about
0.0890000000	time series for
0.0890000000	the types of
0.0890000000	the power and
0.0890000000	this question by
0.0890000000	and reconstruction of
0.0890000000	and structure of
0.0890000000	the paper also
0.0890000000	or set of
0.0890000000	seen before
0.0890000000	and if
0.0890000000	interest from
0.0890000000	1 e
0.0890000000	in value
0.0890000000	or many
0.0870000000	the procedure of
0.0870000000	a reduction in
0.0870000000	two methods of
0.0870000000	in r d
0.0870000000	over time to
0.0870000000	the robustness to
0.0870000000	a framework in
0.0870000000	side information in
0.0870000000	the real time
0.0870000000	the system using
0.0870000000	a video of
0.0870000000	among many
0.0870000000	for less
0.0870000000	between non
0.0870000000	also of
0.0870000000	at time
0.0860000000	the importance of different
0.0860000000	the art algorithms and
0.0860000000	the number of available
0.0860000000	the second best
0.0860000000	the data while
0.0860000000	the optimum of
0.0860000000	of features from
0.0860000000	more attention to
0.0860000000	the key for
0.0860000000	a classifier to
0.0860000000	of approaches to
0.0860000000	the predictions from
0.0860000000	the search of
0.0860000000	in prediction of
0.0860000000	the performance by
0.0860000000	a methodology to
0.0860000000	and in different
0.0860000000	s p
0.0860000000	the de
0.0860000000	all four
0.0860000000	or b
0.0850000000	on detection of
0.0850000000	this latter
0.0850000000	computer go
0.0840000000	the proposed method in
0.0840000000	the high cost of
0.0840000000	a dataset for
0.0840000000	in performance of
0.0830000000	the proposed approach and
0.0830000000	for image classification and
0.0830000000	this method in
0.0830000000	the terms of
0.0830000000	new classes of
0.0830000000	a score of
0.0830000000	the methods used
0.0830000000	taken at
0.0830000000	consider both
0.0830000000	an in
0.0820000000	together in
0.0820000000	to two
0.0810000000	mainly focuses on
0.0810000000	described above
0.0810000000	by two
0.0810000000	a day
0.0800000000	the framework with
0.0800000000	these changes
0.0790000000	the instances of
0.0790000000	a scale of
0.0790000000	in one of
0.0790000000	the methodology and
0.0790000000	other types of
0.0790000000	for detection of
0.0790000000	the existence and
0.0790000000	this problem and
0.0790000000	one against
0.0790000000	2 time
0.0790000000	respectively and
0.0790000000	on in
0.0790000000	of mean
0.0780000000	two state of
0.0780000000	does so
0.0770000000	of images using
0.0770000000	one based on
0.0770000000	the experiments on
0.0770000000	first to
0.0770000000	of near
0.0760000000	and tools for
0.0760000000	a new and
0.0760000000	an o n
0.0760000000	in robotics and
0.0760000000	the method by
0.0760000000	for planning in
0.0760000000	on first
0.0760000000	becomes necessary
0.0760000000	c o
0.0760000000	to good
0.0750000000	the line of
0.0750000000	k means with
0.0750000000	a simple way
0.0750000000	and limitations of
0.0750000000	s own
0.0750000000	each part
0.0750000000	of course
0.0750000000	of six
0.0750000000	an almost
0.0750000000	to go
0.0750000000	and most
0.0740000000	the proposed approach on
0.0740000000	these algorithms in
0.0740000000	different configurations of
0.0740000000	the diagnosis and
0.0740000000	a level of
0.0740000000	a smooth and
0.0730000000	need to know
0.0730000000	near real time
0.0730000000	the model provides
0.0730000000	used on
0.0730000000	many others
0.0730000000	good and
0.0730000000	and try
0.0720000000	a dataset of over
0.0720000000	the performance of various
0.0720000000	the experimental results of
0.0720000000	well in terms of
0.0720000000	two different types of
0.0720000000	given set of
0.0720000000	the last part
0.0720000000	the same in
0.0720000000	of images with
0.0720000000	and development of
0.0720000000	the case with
0.0720000000	the constraints on
0.0720000000	of variables and
0.0720000000	in biological and
0.0720000000	a community of
0.0720000000	a solution of
0.0720000000	the capacity to
0.0720000000	different models and
0.0720000000	a word or
0.0720000000	the quality and
0.0720000000	the field and
0.0720000000	the problem into
0.0720000000	for classification with
0.0720000000	for indexing and
0.0720000000	as n
0.0720000000	the people
0.0720000000	of same
0.0720000000	going through
0.0710000000	one hundred
0.0710000000	2012 and
0.0710000000	either too
0.0710000000	far beyond
0.0700000000	or at least
0.0700000000	very sensitive to
0.0700000000	this indicates
0.0700000000	s w
0.0700000000	therefore in
0.0690000000	a machine learning approach for
0.0690000000	the advantage of using
0.0690000000	the proposed method gives
0.0690000000	in signal and
0.0690000000	and complexity of
0.0690000000	this non
0.0690000000	from n
0.0690000000	i then
0.0690000000	in in
0.0680000000	the distance between two
0.0680000000	the performance of such
0.0680000000	of convergence to
0.0680000000	of items and
0.0680000000	relatively easy to
0.0680000000	on graphs and
0.0680000000	and optimization of
0.0680000000	the semantics and
0.0680000000	and one of
0.0680000000	the sample and
0.0680000000	in models with
0.0680000000	the base of
0.0680000000	the above two
0.0680000000	both sparse and
0.0680000000	the research in
0.0680000000	new data and
0.0680000000	the input in
0.0680000000	novel use of
0.0680000000	the paper with
0.0680000000	three approaches to
0.0680000000	the threshold value
0.0680000000	the framework allows
0.0680000000	on p
0.0680000000	for best
0.0680000000	of changes
0.0680000000	to self
0.0680000000	between people
0.0680000000	or and
0.0680000000	in c
0.0680000000	reasonably well
0.0670000000	the proposed method provides
0.0670000000	the proposed method over
0.0670000000	the number of possible
0.0670000000	the average of
0.0670000000	and challenges for
0.0670000000	from three different
0.0670000000	the means to
0.0670000000	of neurons in
0.0670000000	of performance and
0.0670000000	the system uses
0.0670000000	the frame of
0.0670000000	allows users to
0.0670000000	some well known
0.0670000000	day of
0.0670000000	particular of
0.0670000000	on self
0.0670000000	willing to
0.0670000000	the certain
0.0670000000	the move
0.0670000000	nine different
0.0670000000	and new
0.0670000000	in as
0.0670000000	without ever
0.0660000000	the most useful
0.0660000000	three types of
0.0640000000	the resulting system
0.0640000000	a less
0.0630000000	a deep convolutional neural network to
0.0630000000	a deep convolutional neural network for
0.0630000000	a convolutional neural network cnn and
0.0630000000	a convolutional neural network cnn for
0.0630000000	in part
0.0620000000	a deep neural network for
0.0620000000	a convolutional neural network and
0.0620000000	of deep neural networks and
0.0620000000	a data driven approach to
0.0620000000	a convolutional neural network for
0.0620000000	and real world datasets show
0.0620000000	of convolutional neural networks to
0.0620000000	a convolutional neural network to
0.0620000000	used to make
0.0620000000	a few hundred
0.0620000000	three way
0.0620000000	not merely
0.0620000000	given as
0.0620000000	to try
0.0610000000	and other types of
0.0610000000	the effects of different
0.0610000000	describe in detail
0.0610000000	the construction and
0.0610000000	new possibilities for
0.0610000000	in environments with
0.0610000000	a prior on
0.0610000000	a prior over
0.0610000000	of choice for
0.0610000000	to correct for
0.0610000000	by interacting with
0.0610000000	a case for
0.0610000000	of rows and
0.0610000000	with reference to
0.0610000000	know about
0.0600000000	but none
0.0600000000	often come
0.0600000000	year s
0.0580000000	usually done
0.0570000000	help people
0.0570000000	however none
0.0570000000	become necessary
0.0570000000	after t
0.0570000000	look up
0.0560000000	getting more
0.0560000000	not seem
0.0560000000	seven different
0.0560000000	go through
0.0560000000	indeed possible
0.0560000000	soon as
0.0560000000	good enough
0.0560000000	also shed
0.0560000000	unfortunately due
0.0560000000	eight different
0.0560000000	now possible
0.0550000000	inner product between
0.0550000000	1 sqrt n
0.0550000000	entirely different
0.0550000000	already available
0.0550000000	not entirely
0.0550000000	the fifth
0.0550000000	take full
0.0550000000	often too
0.0550000000	namely i
0.0540000000	an order of magnitude more
0.0540000000	the number of parameters to
0.0540000000	for many applications such as
0.0540000000	an important role in many
0.0540000000	the art results on three
0.0540000000	the art performance on several
0.0540000000	the art performance on three
0.0540000000	the art performance on many
0.0540000000	the art results on two
0.0540000000	the art results on several
0.0540000000	an end to end way
0.0540000000	a new way to
0.0540000000	with large amounts of
0.0540000000	an efficient way to
0.0540000000	a challenging problem for
0.0540000000	an important role for
0.0540000000	particularly well suited for
0.0540000000	for different types of
0.0540000000	the effect of using
0.0540000000	take into account both
0.0540000000	the most popular and
0.0540000000	an efficient way of
0.0540000000	the development of such
0.0540000000	with respect to other
0.0540000000	to current state of
0.0540000000	a challenging task because
0.0540000000	with respect to different
0.0540000000	to generalize to new
0.0540000000	the effectiveness of using
0.0540000000	a challenging problem as
0.0540000000	the most important and
0.0540000000	the effect of different
0.0540000000	three different types of
0.0540000000	a challenging task for
0.0540000000	on recent advances in
0.0540000000	the art techniques on
0.0540000000	other methods such as
0.0540000000	at test time and
0.0540000000	time as well as
0.0540000000	furthermore in order to
0.0540000000	as compared to other
0.0540000000	the art methods while
0.0540000000	the art methods with
0.0540000000	the art methods and
0.0540000000	the similarity between two
0.0540000000	the art methods by
0.0540000000	the art techniques in
0.0540000000	a novel method to
0.0540000000	a novel method of
0.0540000000	than current state of
0.0540000000	able to cope with
0.0540000000	this paper presents two
0.0540000000	of more than one
0.0540000000	able to learn and
0.0540000000	than previous state of
0.0540000000	other tasks such as
0.0540000000	an effective approach to
0.0540000000	this paper proposes to
0.0540000000	the art results and
0.0540000000	the set of possible
0.0540000000	to perform better than
0.0540000000	in order to get
0.0540000000	in many fields such
0.0540000000	in many applications of
0.0540000000	often referred to as
0.0540000000	against several state of
0.0540000000	in order to better
0.0540000000	an effective method to
0.0540000000	in order to allow
0.0540000000	with several state of
0.0540000000	in order to further
0.0540000000	the benefits of using
0.0540000000	in order to do
0.0540000000	the art on several
0.0540000000	in order to help
0.0540000000	for object detection and
0.0540000000	a novel algorithm to
0.0540000000	in order to show
0.0540000000	in order to take
0.0540000000	many tasks such as
0.0540000000	a new perspective to
0.0540000000	for sentiment analysis and
0.0540000000	a set of non
0.0540000000	a set of possible
0.0540000000	the state space and
0.0540000000	for tasks such as
0.0540000000	the art approaches and
0.0540000000	to two state of
0.0540000000	many computer vision and
0.0540000000	with more than one
0.0540000000	a natural way to
0.0540000000	the art in several
0.0540000000	the art approaches in
0.0540000000	the art performance with
0.0540000000	the art performance for
0.0540000000	the difference between two
0.0540000000	the art approaches to
0.0540000000	the art performance of
0.0540000000	of existing state of
0.0540000000	a method for using
0.0540000000	the art performance and
0.0540000000	a new approach of
0.0540000000	in recent years and
0.0540000000	in recent years many
0.0540000000	in recent years to
0.0540000000	the performance of three
0.0540000000	the performance of several
0.0540000000	than existing state of
0.0540000000	the proposed method allows
0.0540000000	the proposed framework on
0.0540000000	a range of different
0.0540000000	than other state of
0.0540000000	a variety of other
0.0540000000	a variety of computer
0.0540000000	a variety of different
0.0540000000	for applications such as
0.0540000000	in applications such as
0.0540000000	least as well as
0.0540000000	the proposed framework and
0.0540000000	almost as well as
0.0540000000	the problem of using
0.0540000000	of large amounts of
0.0540000000	in recent years with
0.0540000000	the proposed method uses
0.0540000000	in terms of mean
0.0540000000	the proposed approach provides
0.0540000000	the proposed method also
0.0540000000	the success of many
0.0540000000	the network learns to
0.0540000000	the performance of many
0.0540000000	the existence of such
0.0540000000	the proposed framework for
0.0540000000	the proposed approach with
0.0540000000	the proposed approach over
0.0540000000	the proposed method of
0.0540000000	time series data and
0.0540000000	and more accurate than
0.0540000000	many fields such as
0.0540000000	in terms of time
0.0540000000	in terms of two
0.0540000000	in terms of different
0.0540000000	the cifar 10 and
0.0540000000	computer vision tasks such
0.0540000000	on tasks such as
0.0540000000	over several state of
0.0540000000	system as well as
0.0540000000	in comparison to other
0.0540000000	part of speech and
0.0540000000	the use of such
0.0540000000	given in terms of
0.0540000000	and experimental results show
0.0540000000	the real world and
0.0540000000	to outperform state of
0.0540000000	of one or more
0.0540000000	of computer vision and
0.0540000000	in tasks such as
0.0540000000	new method based on
0.0540000000	the ability to use
0.0540000000	the proposed algorithms for
0.0540000000	a number of novel
0.0540000000	a novel approach of
0.0540000000	with or better than
0.0540000000	from large amounts of
0.0540000000	the first time to
0.0540000000	the ground truth of
0.0540000000	a principled way to
0.0540000000	in computer vision with
0.0540000000	several applications such as
0.0540000000	in computer vision for
0.0540000000	for feature extraction and
0.0540000000	to other state of
0.0540000000	of two types of
0.0540000000	a number of new
0.0540000000	a new algorithm to
0.0540000000	a new dataset with
0.0540000000	to several state of
0.0540000000	taken into account in
0.0540000000	a novel framework to
0.0540000000	time with respect to
0.0540000000	a number of other
0.0540000000	the first time in
0.0540000000	a novel framework of
0.0540000000	the first work to
0.0540000000	a new method of
0.0540000000	the feasibility of using
0.0540000000	on two well known
0.0540000000	through extensive experiments on
0.0540000000	a new method to
0.0540000000	of training data to
0.0540000000	a lot of time
0.0540000000	a novel technique to
0.0540000000	and other state of
0.0540000000	for machine learning in
0.0540000000	described in terms of
0.0540000000	and recent advances in
0.0540000000	the first attempt to
0.0540000000	on different types of
0.0540000000	the different types of
0.0540000000	also referred to as
0.0540000000	the amount of available
0.0540000000	the first step towards
0.0540000000	the objective function and
0.0540000000	a combination of two
0.0540000000	in contrast to other
0.0540000000	of graphical models and
0.0540000000	of data mining to
0.0540000000	new approach based on
0.0540000000	the number of time
0.0540000000	a genetic algorithm to
0.0540000000	of two or more
0.0540000000	the proposed algorithm uses
0.0540000000	of different types of
0.0540000000	a large margin on
0.0540000000	on real world and
0.0540000000	over current state of
0.0540000000	in real time and
0.0540000000	in real time with
0.0540000000	a large margin and
0.0540000000	in real time using
0.0540000000	of neural networks and
0.0540000000	for knowledge representation and
0.0540000000	in real time on
0.0540000000	a large margin in
0.0540000000	with existing state of
0.0540000000	however in order to
0.0540000000	the impact of different
0.0540000000	to deal with such
0.0540000000	and upper bounds on
0.0540000000	non convex and non
0.0540000000	with different types of
0.0540000000	with current state of
0.0540000000	an effective way of
0.0540000000	an effective way to
0.0540000000	the training set with
0.0540000000	as well as for
0.0540000000	not well suited for
0.0540000000	as well as in
0.0540000000	to or better than
0.0540000000	the advantages of using
0.0540000000	as well as by
0.0540000000	as well as two
0.0540000000	as well as non
0.0540000000	as well as more
0.0540000000	as well as on
0.0540000000	the search space in
0.0540000000	with two types of
0.0540000000	as well as of
0.0540000000	as well as different
0.0540000000	as well as other
0.0540000000	as well as to
0.0540000000	as well as between
0.0540000000	and outperforms state of
0.0540000000	as well as several
0.0540000000	as well as new
0.0540000000	k means and k
0.0540000000	certain types of
0.0540000000	useful information about
0.0540000000	useful information from
0.0540000000	to act as
0.0540000000	of recent work
0.0540000000	of inference and
0.0540000000	the second and
0.0540000000	a significantly more
0.0540000000	more similar to
0.0540000000	but not in
0.0540000000	not seem to
0.0540000000	more general and
0.0540000000	useful tools for
0.0540000000	more efficient in
0.0540000000	of clustering in
0.0540000000	per second on
0.0540000000	amount of available
0.0540000000	to develop and
0.0540000000	of zipf s
0.0540000000	to extract and
0.0540000000	to extract more
0.0540000000	to compute and
0.0540000000	several methods for
0.0540000000	useful information for
0.0540000000	and challenges of
0.0540000000	this approach and
0.0540000000	to develop new
0.0540000000	an architecture for
0.0540000000	an approach of
0.0540000000	an interpretation of
0.0540000000	one set of
0.0540000000	to changes in
0.0540000000	side effect of
0.0540000000	useful tool in
0.0540000000	to predict and
0.0540000000	to predict whether
0.0540000000	not applicable to
0.0540000000	an rgb d
0.0540000000	to generate novel
0.0540000000	to generate new
0.0540000000	to generate more
0.0540000000	of linear and
0.0540000000	to converge at
0.0540000000	to describe and
0.0540000000	to act in
0.0540000000	to identify and
0.0540000000	this approach in
0.0540000000	for three different
0.0540000000	to try to
0.0540000000	an opportunity to
0.0540000000	often suffers from
0.0540000000	to solve for
0.0540000000	to solve many
0.0540000000	to encourage further
0.0540000000	very effective for
0.0540000000	of accuracy in
0.0540000000	an algorithm of
0.0540000000	an algorithm with
0.0540000000	to study and
0.0540000000	in regard to
0.0540000000	to address two
0.0540000000	with two other
0.0540000000	and shown to
0.0540000000	to apply to
0.0540000000	and consistency of
0.0540000000	to extract useful
0.0540000000	the approach allows
0.0540000000	in addition in
0.0540000000	to prior work
0.0540000000	and focus on
0.0540000000	a systematic way
0.0540000000	to outperform other
0.0540000000	and adapt to
0.0540000000	and adapted to
0.0540000000	to run on
0.0540000000	a baseline for
0.0540000000	a faster and
0.0540000000	with two different
0.0540000000	new method for
0.0540000000	to run in
0.0540000000	a way of
0.0540000000	a body of
0.0540000000	the data used
0.0540000000	but not for
0.0540000000	the aspects of
0.0540000000	to solve various
0.0540000000	a speed up
0.0540000000	without access to
0.0540000000	in large part
0.0540000000	not based on
0.0540000000	useful tool for
0.0540000000	and dynamics of
0.0540000000	under uncertainty and
0.0540000000	the distribution over
0.0540000000	and evolution of
0.0540000000	during training and
0.0540000000	to many other
0.0540000000	to solve and
0.0540000000	as in other
0.0540000000	given access to
0.0540000000	this approach uses
0.0540000000	in turn allows
0.0540000000	to implement and
0.0540000000	non convex and
0.0540000000	a maximum of
0.0540000000	in addition by
0.0540000000	to recover from
0.0540000000	the latter allows
0.0540000000	and tend to
0.0540000000	several widely used
0.0540000000	used to show
0.0540000000	allow users to
0.0540000000	with millions of
0.0540000000	a metric for
0.0540000000	part of many
0.0540000000	across domains and
0.0540000000	to problems in
0.0540000000	a fundamental and
0.0540000000	a way to
0.0540000000	of more than
0.0540000000	several properties of
0.0540000000	and achieves better
0.0540000000	well known for
0.0540000000	well known and
0.0540000000	well known to
0.0540000000	or even better
0.0540000000	to develop such
0.0540000000	and effective in
0.0540000000	and stored in
0.0540000000	this task with
0.0540000000	under uncertainty in
0.0540000000	and out of
0.0540000000	to solve in
0.0540000000	and effective way
0.0540000000	and parameters of
0.0540000000	of text and
0.0540000000	to address such
0.0540000000	and due to
0.0540000000	well known in
0.0540000000	and runs in
0.0540000000	certain classes of
0.0540000000	only needs to
0.0540000000	to rank and
0.0540000000	more efficient for
0.0540000000	but not least
0.0540000000	but does not
0.0540000000	those generated by
0.0540000000	to represent and
0.0540000000	not guaranteed to
0.0540000000	to problems with
0.0540000000	and singular value
0.0540000000	another type of
0.0540000000	other forms of
0.0540000000	necessary condition for
0.0540000000	most frequently used
0.0540000000	associated with different
0.0540000000	not all of
0.0540000000	not account for
0.0540000000	new methods for
0.0540000000	this task as
0.0540000000	the ability for
0.0540000000	the computational time
0.0540000000	the approach uses
0.0540000000	this approach on
0.0540000000	the true value
0.0540000000	several well known
0.0540000000	different methods for
0.0540000000	the last three
0.0540000000	most well known
0.0540000000	this issue in
0.0540000000	the difficulty in
0.0540000000	this dataset and
0.0540000000	this approach provides
0.0540000000	amount of work
0.0540000000	two problems in
0.0540000000	two applications of
0.0540000000	into one of
0.0540000000	two forms of
0.0540000000	several classes of
0.0540000000	several types of
0.0540000000	different scales and
0.0540000000	different scales of
0.0540000000	this gap by
0.0540000000	this issue by
0.0540000000	this issue and
0.0540000000	one type of
0.0540000000	this and other
0.0540000000	this approach allows
0.0540000000	this approach for
0.0540000000	this approach by
0.0540000000	this knowledge to
0.0540000000	this setting and
0.0540000000	other parts of
0.0540000000	new methods to
0.0540000000	new dataset of
0.0540000000	used to help
0.0540000000	used to further
0.0540000000	this task by
0.0540000000	this task in
0.0540000000	usually rely on
0.0540000000	more scalable and
0.0540000000	very well in
0.0540000000	more robust and
0.0540000000	this does not
0.0540000000	the output from
0.0540000000	certain properties of
0.0540000000	various applications in
0.0540000000	and scales well
0.0540000000	of convergence in
0.0540000000	system such as
0.0540000000	this paper two
0.0540000000	only based on
0.0540000000	as sequences of
0.0540000000	an intuitive and
0.0540000000	of convergence and
0.0540000000	system consists of
0.0540000000	to refer to
0.0540000000	very challenging and
0.0540000000	as possible to
0.0540000000	work based on
0.0540000000	able to use
0.0540000000	only capable of
0.0540000000	and accounts for
0.0540000000	only focus on
0.0540000000	of memory and
0.0540000000	to visualize and
0.0540000000	using as few
0.0540000000	thus resulting in
0.0540000000	used for many
0.0540000000	using two different
0.0540000000	also allows for
0.0540000000	these models to
0.0540000000	this paper with
0.0540000000	these models on
0.0540000000	new theory of
0.0540000000	of top down
0.0540000000	to compare two
0.0540000000	to compare different
0.0540000000	to perform better
0.0540000000	those used in
0.0540000000	to hundreds of
0.0540000000	not present in
0.0540000000	to depend on
0.0540000000	and then using
0.0540000000	to lead to
0.0540000000	an image using
0.0540000000	an image or
0.0540000000	these algorithms on
0.0540000000	at least in
0.0540000000	the following two
0.0540000000	these models in
0.0540000000	also present two
0.0540000000	more robust against
0.0540000000	at least three
0.0540000000	using less than
0.0540000000	able to make
0.0540000000	of searching for
0.0540000000	able to better
0.0540000000	this paper on
0.0540000000	do not make
0.0540000000	of today s
0.0540000000	at least as
0.0540000000	and methods for
0.0540000000	of convergence for
0.0540000000	between words and
0.0540000000	two commonly used
0.0540000000	able to give
0.0540000000	with probability one
0.0540000000	and then show
0.0540000000	with tens of
0.0540000000	well to new
0.0540000000	a network to
0.0540000000	an image into
0.0540000000	this paper in
0.0540000000	using data from
0.0540000000	with data from
0.0540000000	to come from
0.0540000000	well to other
0.0540000000	of execution time
0.0540000000	and not only
0.0540000000	and then use
0.0540000000	and state of
0.0540000000	as used in
0.0540000000	with simulated and
0.0540000000	well as between
0.0540000000	well as two
0.0540000000	well as other
0.0540000000	and then uses
0.0540000000	in accuracy over
0.0540000000	and up to
0.0540000000	able to show
0.0540000000	and comparison with
0.0540000000	and modeling of
0.0540000000	part due to
0.0540000000	and generation of
0.0540000000	several ways of
0.0540000000	in cases of
0.0540000000	and sizes of
0.0540000000	these features to
0.0540000000	various forms of
0.0540000000	and quantification of
0.0540000000	various datasets and
0.0540000000	no knowledge of
0.0540000000	thus leading to
0.0540000000	a linear system
0.0540000000	well as by
0.0540000000	of convergence of
0.0540000000	these models and
0.0540000000	and suffer from
0.0540000000	a linear time
0.0540000000	well as on
0.0540000000	using images from
0.0540000000	in accuracy on
0.0540000000	in accuracy for
0.0540000000	and test time
0.0540000000	and then used
0.0540000000	well as several
0.0540000000	in accuracy and
0.0540000000	of instances and
0.0540000000	a continuous time
0.0540000000	to contribute to
0.0540000000	over pairs of
0.0540000000	an accurate and
0.0540000000	rather than to
0.0540000000	four publicly available
0.0540000000	well as more
0.0540000000	do not always
0.0540000000	particularly interested in
0.0540000000	of images of
0.0540000000	do not work
0.0540000000	at least for
0.0540000000	to serve as
0.0540000000	rather than using
0.0540000000	way of using
0.0540000000	in form of
0.0540000000	rather than on
0.0540000000	as input and
0.0540000000	using ideas from
0.0540000000	system relies on
0.0540000000	rather than in
0.0540000000	used for different
0.0540000000	a highly non
0.0540000000	and comparison of
0.0540000000	and independent of
0.0540000000	system consisting of
0.0540000000	the authors of
0.0540000000	at least two
0.0540000000	those based on
0.0540000000	as most of
0.0540000000	with less than
0.0540000000	and improvement of
0.0540000000	rather than by
0.0540000000	to perform at
0.0540000000	and experiments on
0.0540000000	one of two
0.0540000000	and uncertainty in
0.0540000000	and then by
0.0540000000	various properties of
0.0540000000	into account and
0.0540000000	new generation of
0.0540000000	and characterization of
0.0540000000	to outliers and
0.0540000000	various approaches to
0.0540000000	various state of
0.0540000000	do not appear
0.0540000000	as possible and
0.0540000000	system as well
0.0540000000	two models for
0.0540000000	all previous work
0.0540000000	show in particular
0.0540000000	this paper i
0.0540000000	new type of
0.0540000000	then compared to
0.0540000000	this method allows
0.0540000000	rather than just
0.0540000000	using only one
0.0540000000	over long time
0.0540000000	over previous work
0.0540000000	into account both
0.0540000000	using well known
0.0540000000	this paper using
0.0540000000	this method to
0.0540000000	one of such
0.0540000000	all state of
0.0540000000	as input for
0.0540000000	this analysis to
0.0540000000	another set of
0.0540000000	the past two
0.0540000000	this paper first
0.0540000000	this paper show
0.0540000000	this paper as
0.0540000000	do not allow
0.0540000000	do not take
0.0540000000	do not contain
0.0540000000	other aspects of
0.0540000000	mainly rely on
0.0540000000	certain kinds of
0.0540000000	new approaches to
0.0540000000	need for new
0.0540000000	the implications for
0.0540000000	the information available
0.0540000000	the following three
0.0540000000	k means on
0.0540000000	the advances in
0.0540000000	this paper gives
0.0540000000	as state of
0.0540000000	new application of
0.0540000000	two methods for
0.0540000000	particular type of
0.0540000000	two variants of
0.0540000000	3d shape of
0.0540000000	two steps first
0.0540000000	as applied to
0.0540000000	as inputs and
0.0540000000	this method and
0.0540000000	other sources of
0.0540000000	ones based on
0.0540000000	new insight into
0.0540000000	other variants of
0.0540000000	this paper for
0.0540000000	this paper to
0.0540000000	this paper also
0.0540000000	this paper uses
0.0540000000	this paper contains
0.0540000000	this paper instead
0.0540000000	this paper by
0.0540000000	this paper and
0.0540000000	this method on
0.0540000000	this limitation by
0.0540000000	one way to
0.0540000000	one way of
0.0540000000	both online and
0.0540000000	this method for
0.0540000000	this method provides
0.0540000000	this method with
0.0540000000	used for other
0.0540000000	a novel system
0.0540000000	such as k
0.0540000000	such as in
0.0540000000	such as self
0.0540000000	such as computer
0.0540000000	through experiments on
0.0540000000	another advantage of
0.0540000000	system trained on
0.0540000000	through simulations and
0.0540000000	using state of
0.0540000000	such as mean
0.0540000000	all types of
0.0540000000	all aspects of
0.0540000000	the task as
0.0540000000	one approach to
0.0540000000	an analysis on
0.0540000000	computer vision but
0.0540000000	computer vision as
0.0540000000	computer vision for
0.0540000000	this model on
0.0540000000	all based on
0.0540000000	these properties make
0.0540000000	computer vision system
0.0540000000	between images and
0.0540000000	according to different
0.0540000000	computer vision to
0.0540000000	to work on
0.0540000000	of humans and
0.0540000000	but suffer from
0.0540000000	overall quality of
0.0540000000	computer vision with
0.0540000000	of dealing with
0.0540000000	more human like
0.0540000000	but instead of
0.0540000000	such kind of
0.0540000000	to dealing with
0.0540000000	of items to
0.0540000000	of patients with
0.0540000000	the speed up
0.0540000000	an assessment of
0.0540000000	in python and
0.0540000000	to work well
0.0540000000	more appropriate for
0.0540000000	a system to
0.0540000000	to learn new
0.0540000000	while state of
0.0540000000	to learn both
0.0540000000	to learn such
0.0540000000	to learn in
0.0540000000	to learn useful
0.0540000000	to learn more
0.0540000000	to learn from
0.0540000000	while most of
0.0540000000	many commonly used
0.0540000000	to lie in
0.0540000000	to discover and
0.0540000000	to discover new
0.0540000000	to result in
0.0540000000	instead of only
0.0540000000	to estimate and
0.0540000000	some types of
0.0540000000	computer science and
0.0540000000	an agent to
0.0540000000	by using only
0.0540000000	such as for
0.0540000000	while previous work
0.0540000000	often associated with
0.0540000000	in three different
0.0540000000	an evaluation on
0.0540000000	to build such
0.0540000000	to interpret and
0.0540000000	also propose two
0.0540000000	to learn better
0.0540000000	to optimize and
0.0540000000	to optimize for
0.0540000000	the signal of
0.0540000000	value function for
0.0540000000	value function and
0.0540000000	between features and
0.0540000000	in many of
0.0540000000	in many other
0.0540000000	in many different
0.0540000000	in simulation and
0.0540000000	to learn about
0.0540000000	in general to
0.0540000000	a small but
0.0540000000	also proposed to
0.0540000000	a given time
0.0540000000	very efficient and
0.0540000000	by recent work
0.0540000000	a classifier on
0.0540000000	a novel non
0.0540000000	the first few
0.0540000000	by relying on
0.0540000000	a scheme for
0.0540000000	in two different
0.0540000000	a prior for
0.0540000000	to occur in
0.0540000000	not lead to
0.0540000000	of non zero
0.0540000000	to learn with
0.0540000000	in number of
0.0540000000	on average and
0.0540000000	system able to
0.0540000000	new family of
0.0540000000	to work in
0.0540000000	these approaches to
0.0540000000	a problem with
0.0540000000	between two different
0.0540000000	in general and
0.0540000000	a classifier using
0.0540000000	a novel two
0.0540000000	by using two
0.0540000000	or rely on
0.0540000000	without relying on
0.0540000000	an application in
0.0540000000	the storage and
0.0540000000	of view and
0.0540000000	a focus on
0.0540000000	a practical and
0.0540000000	such as non
0.0540000000	a classifier for
0.0540000000	a classifier with
0.0540000000	a procedure for
0.0540000000	a procedure to
0.0540000000	the existing ones
0.0540000000	a strategy to
0.0540000000	not scale to
0.0540000000	a powerful and
0.0540000000	a representation for
0.0540000000	in bioinformatics and
0.0540000000	a problem for
0.0540000000	some aspects of
0.0540000000	a learning system
0.0540000000	a view to
0.0540000000	between performance and
0.0540000000	ones such as
0.0540000000	by using different
0.0540000000	time and thus
0.0540000000	by using various
0.0540000000	of out of
0.0540000000	new kind of
0.0540000000	between training and
0.0540000000	a strategy for
0.0540000000	further development of
0.0540000000	such as time
0.0540000000	further used to
0.0540000000	not need to
0.0540000000	by training on
0.0540000000	a sentence and
0.0540000000	the arts in
0.0540000000	many approaches to
0.0540000000	the whole system
0.0540000000	the time to
0.0540000000	the existing work
0.0540000000	the case for
0.0540000000	however does not
0.0540000000	the first such
0.0540000000	the first non
0.0540000000	the first system
0.0540000000	the first known
0.0540000000	the variations in
0.0540000000	not belong to
0.0540000000	the observation of
0.0540000000	mainly based on
0.0540000000	the previous work
0.0540000000	the dataset contains
0.0540000000	the dataset used
0.0540000000	not enough to
0.0540000000	same level of
0.0540000000	for most of
0.0540000000	second level of
0.0540000000	many fields of
0.0540000000	for graphs with
0.0540000000	s ability to
0.0540000000	new variant of
0.0540000000	different instances of
0.0540000000	s law and
0.0540000000	try to find
0.0540000000	new approach for
0.0540000000	new approach to
0.0540000000	this challenge and
0.0540000000	other agents and
0.0540000000	likely to contain
0.0540000000	five state of
0.0540000000	however many of
0.0540000000	often leads to
0.0540000000	more interpretable than
0.0540000000	and works well
0.0540000000	and robust to
0.0540000000	more compact and
0.0540000000	no polynomial time
0.0540000000	no need to
0.0540000000	made available at
0.0540000000	more reliable and
0.0540000000	to understand and
0.0540000000	and as such
0.0540000000	time required to
0.0540000000	very large and
0.0540000000	and classification with
0.0540000000	of information on
0.0540000000	of information from
0.0540000000	of information in
0.0540000000	for example if
0.0540000000	of mixtures of
0.0540000000	of real time
0.0540000000	novel approaches for
0.0540000000	very difficult to
0.0540000000	no information about
0.0540000000	q learning for
0.0540000000	q learning to
0.0540000000	q learning and
0.0540000000	to read and
0.0540000000	particular attention to
0.0540000000	any kind of
0.0540000000	described in detail
0.0540000000	often difficult to
0.0540000000	necessary conditions for
0.0540000000	often lead to
0.0540000000	often based on
0.0540000000	often used as
0.0540000000	often used for
0.0540000000	very different from
0.0540000000	mostly focus on
0.0540000000	particularly useful for
0.0540000000	very hard to
0.0540000000	good results in
0.0540000000	and allows for
0.0540000000	example of such
0.0540000000	often used to
0.0540000000	and allows to
0.0540000000	and learn from
0.0540000000	to noise and
0.0540000000	the kinds of
0.0540000000	and output of
0.0540000000	well adapted to
0.0540000000	and interpretation of
0.0540000000	with out of
0.0540000000	good results on
0.0540000000	on data with
0.0540000000	novel algorithms for
0.0540000000	q learning with
0.0540000000	and differences between
0.0540000000	time required for
0.0540000000	of rgb d
0.0540000000	often fail to
0.0540000000	and characteristics of
0.0540000000	with applications in
0.0540000000	at different time
0.0540000000	and difficult to
0.0540000000	and several other
0.0540000000	and used for
0.0540000000	made available for
0.0540000000	good approximation to
0.0540000000	and easy to
0.0540000000	however state of
0.0540000000	between exploration and
0.0540000000	interest in using
0.0540000000	and present two
0.0540000000	an out of
0.0540000000	and used as
0.0540000000	good results for
0.0540000000	of information or
0.0540000000	and lack of
0.0540000000	and sensitivity to
0.0540000000	and inference of
0.0540000000	and real time
0.0540000000	and hard to
0.0540000000	with experiments on
0.0540000000	these problems by
0.0540000000	an estimation of
0.0540000000	and more than
0.0540000000	by researchers in
0.0540000000	however in most
0.0540000000	time series using
0.0540000000	time series or
0.0540000000	time analysis of
0.0540000000	to appear in
0.0540000000	novel methods for
0.0540000000	to several other
0.0540000000	good agreement with
0.0540000000	these problems in
0.0540000000	of most of
0.0540000000	for example to
0.0540000000	good results and
0.0540000000	of information and
0.0540000000	and solved by
0.0540000000	also leads to
0.0540000000	often used in
0.0540000000	to most of
0.0540000000	these problems and
0.0540000000	from data using
0.0540000000	of working with
0.0540000000	much higher than
0.0540000000	not easy to
0.0540000000	not possible to
0.0540000000	not contained in
0.0540000000	the application to
0.0540000000	the lower and
0.0540000000	most similar to
0.0540000000	from state of
0.0540000000	on real time
0.0540000000	on data from
0.0540000000	many problems in
0.0540000000	however in many
0.0540000000	for mixtures of
0.0540000000	overall performance of
0.0540000000	from two different
0.0540000000	for example for
0.0540000000	for example with
0.0540000000	for example by
0.0540000000	use of such
0.0540000000	use of different
0.0540000000	use of non
0.0540000000	use of several
0.0540000000	novel architecture for
0.0540000000	use state of
0.0540000000	than real time
0.0540000000	several kinds of
0.0540000000	several variations of
0.0540000000	this set of
0.0540000000	of english and
0.0540000000	of time and
0.0540000000	with up to
0.0540000000	only deal with
0.0540000000	but also to
0.0540000000	but also in
0.0540000000	but also allows
0.0540000000	but also from
0.0540000000	and to make
0.0540000000	no loss of
0.0540000000	not only for
0.0540000000	made use of
0.0540000000	most popular and
0.0540000000	co occurrence and
0.0540000000	and management of
0.0540000000	with running time
0.0540000000	or do not
0.0540000000	not part of
0.0540000000	and use of
0.0540000000	and computation time
0.0540000000	and also in
0.0540000000	and also with
0.0540000000	and also provides
0.0540000000	and well known
0.0540000000	and changes in
0.0540000000	a supervised way
0.0540000000	a theoretical and
0.0540000000	corresponding to different
0.0540000000	and achieve better
0.0540000000	and publicly available
0.0540000000	and variance of
0.0540000000	co occurrence of
0.0540000000	and capable of
0.0540000000	not only provides
0.0540000000	with significantly less
0.0540000000	and computation of
0.0540000000	and understanding of
0.0540000000	and by using
0.0540000000	and retrieval of
0.0540000000	in up to
0.0540000000	and running time
0.0540000000	in parallel with
0.0540000000	different ways of
0.0540000000	a language for
0.0540000000	many applications of
0.0540000000	and potential of
0.0540000000	a matrix with
0.0540000000	and suitable for
0.0540000000	with at least
0.0540000000	novel method of
0.0540000000	and testing on
0.0540000000	not occur in
0.0540000000	and prone to
0.0540000000	with at most
0.0540000000	and ease of
0.0540000000	a solution with
0.0540000000	in practice for
0.0540000000	in practice and
0.0540000000	in practice however
0.0540000000	a reliable and
0.0540000000	and training time
0.0540000000	and also to
0.0540000000	on well known
0.0540000000	a general and
0.0540000000	and prediction of
0.0540000000	a consistent and
0.0540000000	a diversity of
0.0540000000	a choice of
0.0540000000	in training time
0.0540000000	a new non
0.0540000000	or superior to
0.0540000000	a challenge to
0.0540000000	there exist many
0.0540000000	with real time
0.0540000000	much as possible
0.0540000000	a solution in
0.0540000000	and benefits of
0.0540000000	several aspects of
0.0540000000	in recent work
0.0540000000	a much more
0.0540000000	or not to
0.0540000000	and combination of
0.0540000000	a dataset containing
0.0540000000	a user specified
0.0540000000	a batch of
0.0540000000	or equal to
0.0540000000	a tool to
0.0540000000	a user and
0.0540000000	with three different
0.0540000000	a few of
0.0540000000	a selection of
0.0540000000	a common and
0.0540000000	a new system
0.0540000000	but also by
0.0540000000	in language and
0.0540000000	four state of
0.0540000000	a cnn for
0.0540000000	on classification of
0.0540000000	a new one
0.0540000000	in r n
0.0540000000	and bag of
0.0540000000	a complete and
0.0540000000	a challenge in
0.0540000000	novel framework for
0.0540000000	but also on
0.0540000000	in most of
0.0540000000	a short time
0.0540000000	a finite time
0.0540000000	a dataset with
0.0540000000	a similar way
0.0540000000	but also provides
0.0540000000	but also for
0.0540000000	in parallel to
0.0540000000	a comprehensive and
0.0540000000	a previous work
0.0540000000	a popular and
0.0540000000	a recent work
0.0540000000	a natural and
0.0540000000	a user to
0.0540000000	and sufficient for
0.0540000000	a common way
0.0540000000	a compact and
0.0540000000	and selection of
0.0540000000	the identification and
0.0540000000	more flexible and
0.0540000000	or not and
0.0540000000	a component of
0.0540000000	four types of
0.0540000000	even for very
0.0540000000	only one of
0.0540000000	two versions of
0.0540000000	not only to
0.0540000000	regardless of whether
0.0540000000	novel method for
0.0540000000	the overall system
0.0540000000	most previous work
0.0540000000	the other side
0.0540000000	the practical use
0.0540000000	most existing work
0.0540000000	not only on
0.0540000000	not only more
0.0540000000	not only in
0.0540000000	not only allows
0.0540000000	not only does
0.0540000000	not captured by
0.0540000000	provides insight into
0.0540000000	many classes of
0.0540000000	on two different
0.0540000000	on five different
0.0540000000	for learning to
0.0540000000	for learning from
0.0540000000	many applications and
0.0540000000	for robots to
0.0540000000	particular case of
0.0540000000	different strategies to
0.0540000000	different architectures and
0.0540000000	several algorithms for
0.0540000000	three sets of
0.0540000000	best performance in
0.0540000000	best performance on
0.0540000000	first results of
0.0540000000	different regions of
0.0540000000	different state of
0.0540000000	much faster and
0.0540000000	less number of
0.0540000000	different sets of
0.0540000000	novel interpretation of
0.0540000000	novel approach to
0.0540000000	both based on
0.0540000000	of terms in
0.0540000000	not able to
0.0540000000	back propagation and
0.0540000000	most commonly used
0.0540000000	and implementation of
0.0540000000	different categories of
0.0540000000	very simple and
0.0540000000	to two different
0.0540000000	of users and
0.0540000000	as well or
0.0540000000	to improve on
0.0540000000	of uncertainty and
0.0540000000	but fail to
0.0540000000	of clusters to
0.0540000000	over time as
0.0540000000	used instead of
0.0540000000	only depend on
0.0540000000	back propagation of
0.0540000000	often do not
0.0540000000	an integration of
0.0540000000	available dataset of
0.0540000000	and dealing with
0.0540000000	for research on
0.0540000000	need to take
0.0540000000	then used for
0.0540000000	to design new
0.0540000000	only very few
0.0540000000	these questions by
0.0540000000	the statistical and
0.0540000000	for binary and
0.0540000000	one aspect of
0.0540000000	different values of
0.0540000000	to focus on
0.0540000000	often rely on
0.0540000000	often not available
0.0540000000	an automated system
0.0540000000	brief introduction to
0.0540000000	of previous work
0.0540000000	of cnns in
0.0540000000	different set of
0.0540000000	in at least
0.0540000000	to look at
0.0540000000	of thousands of
0.0540000000	of users in
0.0540000000	to efficiently and
0.0540000000	for inference in
0.0540000000	to millions of
0.0540000000	of experiments with
0.0540000000	and performs well
0.0540000000	to provide better
0.0540000000	to provide good
0.0540000000	to segment and
0.0540000000	to investigate whether
0.0540000000	very useful in
0.0540000000	without knowledge of
0.0540000000	while allowing for
0.0540000000	to capture more
0.0540000000	to variations in
0.0540000000	to produce better
0.0540000000	to produce more
0.0540000000	any one of
0.0540000000	two widely used
0.0540000000	some properties of
0.0540000000	to previous work
0.0540000000	several publicly available
0.0540000000	different approaches for
0.0540000000	and application to
0.0540000000	and other non
0.0540000000	to provide more
0.0540000000	of existing work
0.0540000000	to handle such
0.0540000000	work presented here
0.0540000000	different sources of
0.0540000000	and compare to
0.0540000000	very useful for
0.0540000000	this work also
0.0540000000	a means of
0.0540000000	almost all of
0.0540000000	an input and
0.0540000000	tries to find
0.0540000000	the interaction with
0.0540000000	to real time
0.0540000000	and application of
0.0540000000	both english and
0.0540000000	to generalize well
0.0540000000	to overcome such
0.0540000000	to improve both
0.0540000000	new types of
0.0540000000	in time o
0.0540000000	to define and
0.0540000000	to obtain new
0.0540000000	and analyze two
0.0540000000	to efficiently find
0.0540000000	full advantage of
0.0540000000	to suffer from
0.0540000000	of at least
0.0540000000	and performs better
0.0540000000	need to find
0.0540000000	to handle non
0.0540000000	a means for
0.0540000000	these methods however
0.0540000000	with only one
0.0540000000	show results on
0.0540000000	to obtain more
0.0540000000	to improve upon
0.0540000000	and compare with
0.0540000000	and removal of
0.0540000000	of uncertainty in
0.0540000000	but suffers from
0.0540000000	interest due to
0.0540000000	and generalization of
0.0540000000	to obtain better
0.0540000000	of at most
0.0540000000	and evaluation of
0.0540000000	and easier to
0.0540000000	any number of
0.0540000000	a technique to
0.0540000000	and compare different
0.0540000000	first and then
0.0540000000	and rgb d
0.0540000000	and columns of
0.0540000000	often suffer from
0.0540000000	two aspects of
0.0540000000	and accuracy of
0.0540000000	and leads to
0.0540000000	different approaches to
0.0540000000	and efficient way
0.0540000000	of tens of
0.0540000000	these issues by
0.0540000000	an input to
0.0540000000	this research work
0.0540000000	in reasoning about
0.0540000000	a word s
0.0540000000	different techniques for
0.0540000000	both accurate and
0.0540000000	for inference and
0.0540000000	very fast and
0.0540000000	with very little
0.0540000000	with very different
0.0540000000	to design and
0.0540000000	work presented in
0.0540000000	still rely on
0.0540000000	with more than
0.0540000000	a means to
0.0540000000	any knowledge of
0.0540000000	different classes of
0.0540000000	this work i
0.0540000000	with well known
0.0540000000	very useful to
0.0540000000	these limitations by
0.0540000000	of clusters and
0.0540000000	to capture and
0.0540000000	these techniques to
0.0540000000	these issues and
0.0540000000	these issues in
0.0540000000	of graphs and
0.0540000000	these methods to
0.0540000000	as found in
0.0540000000	these methods in
0.0540000000	these methods on
0.0540000000	to obtain good
0.0540000000	need to use
0.0540000000	using pairs of
0.0540000000	over time and
0.0540000000	over time in
0.0540000000	the techniques used
0.0540000000	the hierarchy of
0.0540000000	the interest in
0.0540000000	the posterior mean
0.0540000000	the possibility to
0.0540000000	the next best
0.0540000000	same accuracy as
0.0540000000	the impact on
0.0540000000	two algorithms for
0.0540000000	the robustness against
0.0540000000	then used in
0.0540000000	then used to
0.0540000000	this work and
0.0540000000	the code for
0.0540000000	need to consider
0.0540000000	the process by
0.0540000000	new results for
0.0540000000	most suitable for
0.0540000000	the most used
0.0540000000	some state of
0.0540000000	near state of
0.0540000000	one example of
0.0540000000	different notions of
0.0540000000	same number of
0.0540000000	for application in
0.0540000000	new results on
0.0540000000	for at least
0.0540000000	for research in
0.0540000000	each type of
0.0540000000	two well known
0.0540000000	as observed in
0.0540000000	as well and
0.0540000000	as instances of
0.0540000000	two classes of
0.0540000000	particular cases of
0.0540000000	several examples of
0.0540000000	several variants of
0.0540000000	different measures of
0.0540000000	different stages of
0.0540000000	several approaches to
0.0540000000	different tasks and
0.0540000000	different numbers of
0.0540000000	two sources of
0.0540000000	different representations of
0.0540000000	two groups of
0.0540000000	this form of
0.0540000000	other areas of
0.0540000000	both input and
0.0540000000	other kinds of
0.0540000000	still images and
0.0540000000	this work to
0.0540000000	this work in
0.0540000000	as belonging to
0.0540000000	of computation in
0.0540000000	more efficiently and
0.0540000000	of research for
0.0540000000	of data by
0.0540000000	changes due to
0.0540000000	a complex and
0.0540000000	of interest by
0.0540000000	of interest from
0.0540000000	of interest to
0.0540000000	of words with
0.0540000000	of neurons and
0.0540000000	these results indicate
0.0540000000	for instance by
0.0540000000	of parameters and
0.0540000000	to rely on
0.0540000000	of research on
0.0540000000	these kinds of
0.0540000000	any type of
0.0540000000	these experiments show
0.0540000000	these types of
0.0540000000	r cnn for
0.0540000000	but most of
0.0540000000	only depends on
0.0540000000	new algorithm for
0.0540000000	a mechanism to
0.0540000000	in particular with
0.0540000000	to make better
0.0540000000	the necessity to
0.0540000000	of interest in
0.0540000000	re identification in
0.0540000000	re identification and
0.0540000000	to test and
0.0540000000	the comparison between
0.0540000000	of computation and
0.0540000000	of data on
0.0540000000	to analyze and
0.0540000000	a need to
0.0540000000	of large and
0.0540000000	least squares and
0.0540000000	these results show
0.0540000000	the community of
0.0540000000	than existing ones
0.0540000000	to less than
0.0540000000	in particular on
0.0540000000	to detect such
0.0540000000	to detect and
0.0540000000	least one of
0.0540000000	these and other
0.0540000000	possible to find
0.0540000000	possible applications of
0.0540000000	of interest using
0.0540000000	a hybrid of
0.0540000000	a different way
0.0540000000	in particular to
0.0540000000	for solving such
0.0540000000	a platform for
0.0540000000	of data with
0.0540000000	in particular given
0.0540000000	the literature but
0.0540000000	in particular in
0.0540000000	in regards to
0.0540000000	these results also
0.0540000000	a task of
0.0540000000	in images and
0.0540000000	of interest for
0.0540000000	of up to
0.0540000000	especially useful for
0.0540000000	a hybrid system
0.0540000000	more accurate and
0.0540000000	in advance and
0.0540000000	that state of
0.0540000000	in particular for
0.0540000000	a value of
0.0540000000	a field of
0.0540000000	on rgb d
0.0540000000	a point of
0.0540000000	on problems with
0.0540000000	a function from
0.0540000000	under two different
0.0540000000	of size o
0.0540000000	of interest as
0.0540000000	of research in
0.0540000000	of detection and
0.0540000000	in experiments with
0.0540000000	these results to
0.0540000000	any form of
0.0540000000	for training of
0.0540000000	in applications of
0.0540000000	a platform to
0.0540000000	more sensitive to
0.0540000000	a sample from
0.0540000000	in particular by
0.0540000000	a fusion of
0.0540000000	in experiments on
0.0540000000	in particular of
0.0540000000	a dynamic and
0.0540000000	in applications like
0.0540000000	a model s
0.0540000000	a context of
0.0540000000	new model and
0.0540000000	in problems with
0.0540000000	in particular as
0.0540000000	any set of
0.0540000000	a priori known
0.0540000000	a degree of
0.0540000000	a priori and
0.0540000000	a freely available
0.0540000000	the evaluation on
0.0540000000	a long way
0.0540000000	system does not
0.0540000000	in expectation and
0.0540000000	some limitations of
0.0540000000	a formulation of
0.0540000000	time due to
0.0540000000	in computation time
0.0540000000	a benchmark of
0.0540000000	over fitting and
0.0540000000	of interest with
0.0540000000	in videos and
0.0540000000	a construction of
0.0540000000	the syntax and
0.0540000000	any information about
0.0540000000	done by using
0.0540000000	on previous work
0.0540000000	all kinds of
0.0540000000	using publicly available
0.0540000000	using ensembles of
0.0540000000	the literature and
0.0540000000	the literature as
0.0540000000	the literature for
0.0540000000	the literature by
0.0540000000	the community to
0.0540000000	not appear in
0.0540000000	becomes necessary to
0.0540000000	not available in
0.0540000000	not available for
0.0540000000	the comparison with
0.0540000000	most prior work
0.0540000000	for instance in
0.0540000000	the only way
0.0540000000	for improvement in
0.0540000000	each iteration to
0.0540000000	each iteration and
0.0540000000	each level of
0.0540000000	same set of
0.0540000000	from more than
0.0540000000	however for many
0.0540000000	for analysis of
0.0540000000	for solving many
0.0540000000	for development of
0.0540000000	for applications in
0.0540000000	on datasets with
0.0540000000	for problems with
0.0540000000	for instance to
0.0540000000	on widely used
0.0540000000	on ideas from
0.0540000000	two sets of
0.0540000000	as for example
0.0540000000	as to make
0.0540000000	novel variant of
0.0540000000	this trade off
0.0540000000	both efficient and
0.0540000000	new model for
0.0540000000	this not only
0.0540000000	new challenges for
0.0540000000	this idea to
0.0540000000	non smooth and
0.0540000000	from rgb d
0.0540000000	better performance of
0.0540000000	as features to
0.0540000000	each other in
0.0540000000	and interact with
0.0540000000	different areas of
0.0540000000	of communication and
0.0540000000	does not take
0.0540000000	a property of
0.0540000000	of less than
0.0540000000	more complex and
0.0540000000	and synthesis of
0.0540000000	various ways to
0.0540000000	but in many
0.0540000000	of attention in
0.0540000000	as defined in
0.0540000000	of one s
0.0540000000	very important to
0.0540000000	also shown to
0.0540000000	several applications in
0.0540000000	novel combination of
0.0540000000	but due to
0.0540000000	these challenges by
0.0540000000	all pairs of
0.0540000000	and applicability of
0.0540000000	by focusing on
0.0540000000	three widely used
0.0540000000	good candidate for
0.0540000000	does not consider
0.0540000000	does not only
0.0540000000	does not always
0.0540000000	does not allow
0.0540000000	most likely to
0.0540000000	also compared with
0.0540000000	containing more than
0.0540000000	some measure of
0.0540000000	for patients with
0.0540000000	the baseline system
0.0540000000	also applies to
0.0540000000	various problems in
0.0540000000	and propose two
0.0540000000	from previous work
0.0540000000	as compared with
0.0540000000	and visualization of
0.0540000000	in part to
0.0540000000	a principled and
0.0540000000	r g and
0.0540000000	therefore do not
0.0540000000	in future work
0.0540000000	both time and
0.0540000000	in prior work
0.0540000000	does not contain
0.0540000000	the method provides
0.0540000000	better use of
0.0540000000	by product of
0.0540000000	a rich and
0.0540000000	and serve as
0.0540000000	no more than
0.0540000000	with thousands of
0.0540000000	better performance in
0.0540000000	the method s
0.0540000000	u net and
0.0540000000	of one such
0.0540000000	better performance and
0.0540000000	better than other
0.0540000000	provides state of
0.0540000000	the network by
0.0540000000	more than two
0.0540000000	a framework to
0.0540000000	does not know
0.0540000000	a very good
0.0540000000	does not make
0.0540000000	of high interest
0.0540000000	in only one
0.0540000000	in statistics and
0.0540000000	different kind of
0.0540000000	very important for
0.0540000000	system capable of
0.0540000000	also lead to
0.0540000000	thorough analysis of
0.0540000000	each class of
0.0540000000	the method described
0.0540000000	further analysis of
0.0540000000	in absence of
0.0540000000	this framework to
0.0540000000	for detecting and
0.0540000000	of pairs of
0.0540000000	various aspects of
0.0540000000	the theoretical side
0.0540000000	further extended to
0.0540000000	a very useful
0.0540000000	of performance of
0.0540000000	more complex than
0.0540000000	and convergence of
0.0540000000	and propose new
0.0540000000	and type of
0.0540000000	more complex ones
0.0540000000	better than others
0.0540000000	and classes of
0.0540000000	each other as
0.0540000000	a comparison to
0.0540000000	three kinds of
0.0540000000	and many of
0.0540000000	between language and
0.0540000000	by experiments on
0.0540000000	at hand and
0.0540000000	and do not
0.0540000000	and benchmark for
0.0540000000	for datasets with
0.0540000000	the method used
0.0540000000	various fields of
0.0540000000	better performance with
0.0540000000	and size of
0.0540000000	different domains and
0.0540000000	a distributed system
0.0540000000	each other but
0.0540000000	the original one
0.0540000000	does not work
0.0540000000	interest such as
0.0540000000	more effective in
0.0540000000	various combinations of
0.0540000000	and allow for
0.0540000000	more than just
0.0540000000	a simple example
0.0540000000	then proceed to
0.0540000000	and consists of
0.0540000000	using three different
0.0540000000	both 2d and
0.0540000000	several commonly used
0.0540000000	each other and
0.0540000000	in simulations and
0.0540000000	however one of
0.0540000000	better compared to
0.0540000000	better performance on
0.0540000000	work deals with
0.0540000000	better and more
0.0540000000	better than or
0.0540000000	a discrete time
0.0540000000	this framework allows
0.0540000000	for sets of
0.0540000000	some form of
0.0540000000	some kind of
0.0540000000	some examples of
0.0540000000	the modeling and
0.0540000000	other methods in
0.0540000000	the research of
0.0540000000	the prior work
0.0540000000	the prior and
0.0540000000	the dimension d
0.0540000000	each other by
0.0540000000	the theoretical and
0.0540000000	mostly due to
0.0540000000	the two most
0.0540000000	this framework for
0.0540000000	the baseline and
0.0540000000	other methods on
0.0540000000	not required to
0.0540000000	the method uses
0.0540000000	then applied to
0.0540000000	from publicly available
0.0540000000	different from other
0.0540000000	the problem from
0.0540000000	the problem becomes
0.0540000000	the system provides
0.0540000000	as features for
0.0540000000	each image and
0.0540000000	each other s
0.0540000000	from one of
0.0540000000	zero shot and
0.0540000000	different versions of
0.0540000000	for more than
0.0540000000	on analysis of
0.0540000000	on imagenet and
0.0540000000	on subsets of
0.0540000000	different subsets of
0.0540000000	as features in
0.0540000000	different variants of
0.0540000000	different locations in
0.0540000000	different characteristics of
0.0540000000	different layers of
0.0540000000	as defined by
0.0540000000	different combinations of
0.0540000000	either based on
0.0540000000	different from most
0.0540000000	best results on
0.0540000000	three levels of
0.0540000000	one image to
0.0540000000	this family of
0.0540000000	this algorithm on
0.0540000000	this result to
0.0540000000	other methods for
0.0540000000	other methods and
0.0540000000	other approaches to
0.0540000000	this lack of
0.0540000000	both image and
0.0540000000	new class of
0.0540000000	new opportunities for
0.0540000000	one kind of
0.0540000000	this framework and
0.0540000000	this technique to
0.0540000000	this technique for
0.0540000000	new ways of
0.0540000000	still able to
0.0540000000	both types of
0.0540000000	mostly based on
0.0540000000	changes over time
0.0540000000	better accuracy and
0.0540000000	the utility and
0.0540000000	this problem becomes
0.0540000000	the future and
0.0540000000	f measure of
0.0540000000	of classification and
0.0540000000	of groups of
0.0540000000	not perform well
0.0540000000	the end to
0.0540000000	of variation in
0.0540000000	in state of
0.0540000000	and try to
0.0540000000	much easier to
0.0540000000	after training on
0.0540000000	of bag of
0.0540000000	and lead to
0.0540000000	and reasoning in
0.0540000000	good performance with
0.0540000000	good performance and
0.0540000000	good performance on
0.0540000000	different datasets and
0.0540000000	three state of
0.0540000000	by noise and
0.0540000000	not due to
0.0540000000	between 0 and
0.0540000000	and evaluated on
0.0540000000	time complexity of
0.0540000000	time complexity and
0.0540000000	time consuming to
0.0540000000	and relies on
0.0540000000	by learning from
0.0540000000	contains more than
0.0540000000	better results for
0.0540000000	also able to
0.0540000000	by humans and
0.0540000000	by adding new
0.0540000000	by comparing with
0.0540000000	the paper provides
0.0540000000	a promising way
0.0540000000	the classifier s
0.0540000000	those produced by
0.0540000000	those obtained from
0.0540000000	by at least
0.0540000000	between humans and
0.0540000000	also experiment with
0.0540000000	and effectiveness of
0.0540000000	and run time
0.0540000000	between accuracy and
0.0540000000	by sampling from
0.0540000000	time as well
0.0540000000	the world in
0.0540000000	better understanding of
0.0540000000	better accuracy in
0.0540000000	good performance in
0.0540000000	a single or
0.0540000000	a software system
0.0540000000	by learning to
0.0540000000	those of other
0.0540000000	next generation of
0.0540000000	a unified way
0.0540000000	for evaluation and
0.0540000000	by at most
0.0540000000	and reasoning about
0.0540000000	in more than
0.0540000000	and scale of
0.0540000000	a robot s
0.0540000000	and applied in
0.0540000000	a measure to
0.0540000000	less likely to
0.0540000000	further developed to
0.0540000000	computer model of
0.0540000000	this problem with
0.0540000000	less than one
0.0540000000	a challenging and
0.0540000000	in detail and
0.0540000000	even better than
0.0540000000	by allowing for
0.0540000000	a measure for
0.0540000000	and applied to
0.0540000000	for rgb d
0.0540000000	and evaluated in
0.0540000000	at most one
0.0540000000	and location of
0.0540000000	under consideration for
0.0540000000	in less than
0.0540000000	in data and
0.0540000000	in size and
0.0540000000	in performance over
0.0540000000	or comparable to
0.0540000000	a crucial part
0.0540000000	good performance for
0.0540000000	a scalable and
0.0540000000	with much less
0.0540000000	in order for
0.0540000000	different features and
0.0540000000	by more than
0.0540000000	different degrees of
0.0540000000	better results in
0.0540000000	of diversity in
0.0540000000	and based on
0.0540000000	first step towards
0.0540000000	better suited to
0.0540000000	and rely on
0.0540000000	and simulation of
0.0540000000	and extraction of
0.0540000000	for accurate and
0.0540000000	non linear and
0.0540000000	different scenarios and
0.0540000000	non trivial to
0.0540000000	many kinds of
0.0540000000	a unified and
0.0540000000	the question whether
0.0540000000	in dealing with
0.0540000000	and extensions of
0.0540000000	and reasoning with
0.0540000000	for reasoning under
0.0540000000	o 1 n
0.0540000000	further experiments on
0.0540000000	on out of
0.0540000000	the appearance and
0.0540000000	the scalability and
0.0540000000	the presence or
0.0540000000	most widely used
0.0540000000	the complex and
0.0540000000	this problem from
0.0540000000	the noisy or
0.0540000000	the exploration and
0.0540000000	the flexibility to
0.0540000000	the dynamic time
0.0540000000	the world s
0.0540000000	the world of
0.0540000000	the paper gives
0.0540000000	the objects of
0.0540000000	due to many
0.0540000000	the experiments also
0.0540000000	the aim to
0.0540000000	not generalize well
0.0540000000	not depend on
0.0540000000	not robust to
0.0540000000	the entire system
0.0540000000	not sufficient to
0.0540000000	the idea behind
0.0540000000	s performance on
0.0540000000	for reasoning about
0.0540000000	for evaluation of
0.0540000000	for fast and
0.0540000000	on pairs of
0.0540000000	for many of
0.0540000000	for encoding and
0.0540000000	many aspects of
0.0540000000	three well known
0.0540000000	on most of
0.0540000000	on more than
0.0540000000	from twitter and
0.0540000000	for one of
0.0540000000	than previous work
0.0540000000	many types of
0.0540000000	from very few
0.0540000000	for dealing with
0.0540000000	many tasks in
0.0540000000	two approaches to
0.0540000000	two approaches for
0.0540000000	three publicly available
0.0540000000	three variants of
0.0540000000	different forms of
0.0540000000	due to different
0.0540000000	due to various
0.0540000000	due to non
0.0540000000	first step in
0.0540000000	much interest in
0.0540000000	this problem for
0.0540000000	particular emphasis on
0.0540000000	this corresponds to
0.0540000000	this problem but
0.0540000000	this problem of
0.0540000000	this problem using
0.0540000000	still suffer from
0.0540000000	work focuses on
0.0540000000	of variations in
0.0540000000	but do not
0.0540000000	more difficult than
0.0540000000	an exploration of
0.0540000000	of interactions between
0.0540000000	of documents and
0.0540000000	of documents in
0.0540000000	of not only
0.0540000000	of algorithms for
0.0540000000	and provide new
0.0540000000	of publicly available
0.0540000000	useful for many
0.0540000000	to find good
0.0540000000	very general and
0.0540000000	of abstraction and
0.0540000000	with one of
0.0540000000	of scenes and
0.0540000000	useful for other
0.0540000000	an object from
0.0540000000	to train and
0.0540000000	of shape and
0.0540000000	to evaluate and
0.0540000000	the challenges and
0.0540000000	to correspond to
0.0540000000	to thousands of
0.0540000000	to use in
0.0540000000	to select and
0.0540000000	to achieve good
0.0540000000	an object of
0.0540000000	to date most
0.0540000000	particularly effective in
0.0540000000	to benefit from
0.0540000000	to sets of
0.0540000000	an advantage of
0.0540000000	to train on
0.0540000000	to train such
0.0540000000	to train very
0.0540000000	an example in
0.0540000000	to belong to
0.0540000000	an attempt to
0.0540000000	to create and
0.0540000000	to create new
0.0540000000	of objects from
0.0540000000	often results in
0.0540000000	an important but
0.0540000000	then based on
0.0540000000	an alternative way
0.0540000000	to inference in
0.0540000000	to create more
0.0540000000	various methods of
0.0540000000	by one or
0.0540000000	to localize and
0.0540000000	to collect and
0.0540000000	to determine whether
0.0540000000	to determine if
0.0540000000	by state of
0.0540000000	an object s
0.0540000000	this allows for
0.0540000000	and results in
0.0540000000	also results in
0.0540000000	to find and
0.0540000000	only need to
0.0540000000	and thus to
0.0540000000	and treatment of
0.0540000000	for prediction of
0.0540000000	and precision of
0.0540000000	an automatic and
0.0540000000	system and to
0.0540000000	an interesting and
0.0540000000	and in particular
0.0540000000	and compared with
0.0540000000	and results show
0.0540000000	more amenable to
0.0540000000	further research and
0.0540000000	with hundreds of
0.0540000000	time algorithms for
0.0540000000	and widely used
0.0540000000	two levels of
0.0540000000	this allows to
0.0540000000	and validated on
0.0540000000	different sizes and
0.0540000000	and feasibility of
0.0540000000	and expensive to
0.0540000000	to more than
0.0540000000	allows one to
0.0540000000	the model uses
0.0540000000	also applicable to
0.0540000000	thus do not
0.0540000000	between objects and
0.0540000000	time linear in
0.0540000000	and result in
0.0540000000	an object or
0.0540000000	and tested on
0.0540000000	to use for
0.0540000000	to choose from
0.0540000000	and performance of
0.0540000000	and execution time
0.0540000000	also used for
0.0540000000	and thus provides
0.0540000000	and applications in
0.0540000000	and compared to
0.0540000000	and compared against
0.0540000000	and tested in
0.0540000000	and robustness to
0.0540000000	to not only
0.0540000000	an effort to
0.0540000000	with access to
0.0540000000	time compared to
0.0540000000	and identification of
0.0540000000	further research in
0.0540000000	also applied to
0.0540000000	and applications to
0.0540000000	work aims at
0.0540000000	the art system
0.0540000000	system identification and
0.0540000000	with one or
0.0540000000	and shortcomings of
0.0540000000	on publicly available
0.0540000000	quite different from
0.0540000000	allows for more
0.0540000000	further research on
0.0540000000	various classes of
0.0540000000	also capable of
0.0540000000	more difficult to
0.0540000000	to well known
0.0540000000	the way for
0.0540000000	to achieve more
0.0540000000	from scratch and
0.0540000000	by searching for
0.0540000000	various levels of
0.0540000000	to state of
0.0540000000	between users and
0.0540000000	and applications of
0.0540000000	the art non
0.0540000000	between pairs of
0.0540000000	several experiments on
0.0540000000	well compared to
0.0540000000	from images in
0.0540000000	often hard to
0.0540000000	by one of
0.0540000000	the way to
0.0540000000	other well known
0.0540000000	system designed to
0.0540000000	on one of
0.0540000000	the best overall
0.0540000000	other commonly used
0.0540000000	used in two
0.0540000000	some cases even
0.0540000000	the type and
0.0540000000	the view of
0.0540000000	show state of
0.0540000000	the progress in
0.0540000000	the largest and
0.0540000000	the kind of
0.0540000000	the best available
0.0540000000	the best in
0.0540000000	the best one
0.0540000000	the current work
0.0540000000	from sets of
0.0540000000	the art or
0.0540000000	the art while
0.0540000000	the art without
0.0540000000	for prediction and
0.0540000000	for images with
0.0540000000	from scratch using
0.0540000000	for researchers to
0.0540000000	for researchers and
0.0540000000	each node to
0.0540000000	for state of
0.0540000000	for identification of
0.0540000000	for extraction of
0.0540000000	many algorithms for
0.0540000000	on line and
0.0540000000	on four different
0.0540000000	so far in
0.0540000000	used in different
0.0540000000	used in several
0.0540000000	particular types of
0.0540000000	usually based on
0.0540000000	used together with
0.0540000000	both deterministic and
0.0540000000	used in various
0.0540000000	new algorithms for
0.0540000000	changes within
0.0540000000	entirely in
0.0540000000	show two
0.0540000000	used while
0.0540000000	one s
0.0540000000	then by
0.0540000000	alone and
0.0540000000	then two
0.0540000000	few other
0.0540000000	this often
0.0540000000	appear as
0.0540000000	then with
0.0540000000	work towards
0.0540000000	nearly as
0.0540000000	one part
0.0540000000	one used
0.0540000000	both more
0.0540000000	1d and
0.0540000000	still very
0.0540000000	seen by
0.0540000000	few of
0.0540000000	few or
0.0540000000	few as
0.0540000000	taken with
0.0540000000	one uses
0.0540000000	then uses
0.0540000000	mostly on
0.0540000000	taken for
0.0540000000	both from
0.0540000000	then in
0.0540000000	relatively new
0.0540000000	used here
0.0540000000	used without
0.0540000000	used or
0.0540000000	work also
0.0540000000	this also
0.0540000000	ones as
0.0540000000	still to
0.0540000000	used across
0.0540000000	this same
0.0540000000	used within
0.0540000000	used two
0.0540000000	this into
0.0540000000	still in
0.0540000000	both two
0.0540000000	both well
0.0540000000	both at
0.0540000000	both within
0.0540000000	both computer
0.0540000000	new and
0.0540000000	show both
0.0540000000	show by
0.0540000000	show with
0.0540000000	show very
0.0540000000	show through
0.0540000000	show via
0.0540000000	used both
0.0540000000	show on
0.0540000000	work to
0.0540000000	used but
0.0540000000	both with
0.0540000000	other known
0.0540000000	appropriate and
0.0540000000	this one
0.0540000000	both non
0.0540000000	that more
0.0540000000	show good
0.0540000000	entirely new
0.0540000000	ones of
0.0540000000	one using
0.0540000000	other three
0.0540000000	one but
0.0540000000	other more
0.0540000000	other possible
0.0540000000	work only
0.0540000000	this very
0.0540000000	both using
0.0540000000	ones with
0.0540000000	this second
0.0540000000	work by
0.0540000000	both by
0.0540000000	one from
0.0540000000	one out
0.0540000000	this year
0.0540000000	that particular
0.0540000000	ones on
0.0540000000	this value
0.0540000000	work from
0.0540000000	other but
0.0540000000	work together
0.0540000000	then to
0.0540000000	taken in
0.0540000000	this two
0.0540000000	work so
0.0540000000	other two
0.0540000000	work at
0.0540000000	this becomes
0.0540000000	this more
0.0540000000	this comes
0.0540000000	one with
0.0540000000	one side
0.0540000000	used over
0.0540000000	used during
0.0540000000	this causes
0.0540000000	this first
0.0540000000	one day
0.0540000000	this on
0.0540000000	appropriate in
0.0540000000	then using
0.0540000000	show to
0.0540000000	new to
0.0540000000	other people
0.0540000000	that better
0.0540000000	used at
0.0540000000	one at
0.0540000000	one on
0.0540000000	mostly in
0.0540000000	one as
0.0540000000	show here
0.0540000000	this further
0.0540000000	that work
0.0540000000	show for
0.0540000000	show better
0.0540000000	other uses
0.0540000000	one and
0.0540000000	one given
0.0540000000	other and
0.0540000000	this with
0.0540000000	this by
0.0540000000	one time
0.0540000000	one in
0.0540000000	one after
0.0540000000	work uses
0.0540000000	work as
0.0540000000	work using
0.0540000000	work i
0.0540000000	other non
0.0540000000	seen to
0.0540000000	still possible
0.0540000000	show however
0.0540000000	used only
0.0540000000	show using
0.0540000000	this as
0.0540000000	this there
0.0540000000	ones for
0.0540000000	show in
0.0540000000	new system
0.0540000000	this for
0.0540000000	this need
0.0540000000	one vs
0.0540000000	work done
0.0540000000	one possible
0.0540000000	new one
0.0540000000	ones from
0.0540000000	that none
0.0540000000	new way
0.0540000000	this using
0.0540000000	other s
0.0540000000	changes between
0.0540000000	then for
0.0540000000	ones to
0.0540000000	ones in
0.0540000000	ones by
0.0540000000	ones using
0.0540000000	this usually
0.0540000000	work and
0.0540000000	work better
0.0540000000	show several
0.0540000000	used either
0.0540000000	appropriate to
0.0540000000	b for
0.0540000000	changes with
0.0540000000	both to
0.0540000000	both as
0.0540000000	then further
0.0540000000	then give
0.0540000000	then on
0.0540000000	then given
0.0540000000	new more
0.0540000000	changes by
0.0540000000	right and
0.0540000000	changes or
0.0540000000	changes as
0.0540000000	changes from
0.0540000000	every possible
0.0540000000	usually used
0.0540000000	usually use
0.0540000000	usually not
0.0540000000	ignored by
0.0540000000	ignored in
0.0540000000	taken to
0.0540000000	taken over
0.0540000000	taken and
0.0540000000	taken under
0.0540000000	40 of
0.0540000000	day to
0.0540000000	day by
0.0540000000	day in
0.0540000000	overall system
0.0540000000	than with
0.0540000000	as either
0.0540000000	than two
0.0540000000	since different
0.0540000000	since many
0.0540000000	since most
0.0540000000	since only
0.0540000000	since in
0.0540000000	since then
0.0540000000	instead to
0.0540000000	much like
0.0540000000	instead uses
0.0540000000	several sub
0.0540000000	among several
0.0540000000	either to
0.0540000000	s best
0.0540000000	s first
0.0540000000	s more
0.0540000000	s on
0.0540000000	novel and
0.0540000000	2 or
0.0540000000	2 for
0.0540000000	2 in
0.0540000000	2 by
0.0540000000	use with
0.0540000000	less time
0.0540000000	best one
0.0540000000	best possible
0.0540000000	yet in
0.0540000000	yet still
0.0540000000	help with
0.0540000000	help to
0.0540000000	here i
0.0540000000	first one
0.0540000000	than both
0.0540000000	2016 to
0.0540000000	novel system
0.0540000000	particular given
0.0540000000	less well
0.0540000000	than several
0.0540000000	much time
0.0540000000	much as
0.0540000000	use three
0.0540000000	yet with
0.0540000000	off in
0.0540000000	novel in
0.0540000000	use one
0.0540000000	use non
0.0540000000	use on
0.0540000000	less and
0.0540000000	use only
0.0540000000	use to
0.0540000000	use more
0.0540000000	use and
0.0540000000	use such
0.0540000000	use as
0.0540000000	use different
0.0540000000	first by
0.0540000000	best way
0.0540000000	best in
0.0540000000	best available
0.0540000000	best and
0.0540000000	best on
0.0540000000	best among
0.0540000000	best to
0.0540000000	best known
0.0540000000	best for
0.0540000000	best of
0.0540000000	among various
0.0540000000	here by
0.0540000000	here on
0.0540000000	here show
0.0540000000	here to
0.0540000000	here in
0.0540000000	here as
0.0540000000	here for
0.0540000000	either for
0.0540000000	either on
0.0540000000	either by
0.0540000000	different for
0.0540000000	three new
0.0540000000	first for
0.0540000000	different in
0.0540000000	than most
0.0540000000	than using
0.0540000000	than one
0.0540000000	different way
0.0540000000	best overall
0.0540000000	two given
0.0540000000	as three
0.0540000000	first consider
0.0540000000	first or
0.0540000000	first on
0.0540000000	first three
0.0540000000	first describe
0.0540000000	first in
0.0540000000	either as
0.0540000000	than before
0.0540000000	2 using
0.0540000000	either from
0.0540000000	here with
0.0540000000	help of
0.0540000000	either in
0.0540000000	first using
0.0540000000	three of
0.0540000000	first such
0.0540000000	instead on
0.0540000000	into other
0.0540000000	yet most
0.0540000000	as mean
0.0540000000	first use
0.0540000000	as first
0.0540000000	either of
0.0540000000	particular to
0.0540000000	three or
0.0540000000	two non
0.0540000000	three other
0.0540000000	2 of
0.0540000000	as only
0.0540000000	different people
0.0540000000	than to
0.0540000000	either through
0.0540000000	than full
0.0540000000	as useful
0.0540000000	different sub
0.0540000000	first of
0.0540000000	three sub
0.0540000000	first uses
0.0540000000	different computer
0.0540000000	two known
0.0540000000	three novel
0.0540000000	either use
0.0540000000	different than
0.0540000000	first time
0.0540000000	several of
0.0540000000	than just
0.0540000000	first few
0.0540000000	different to
0.0540000000	different and
0.0540000000	as over
0.0540000000	novel way
0.0540000000	either one
0.0540000000	as i
0.0540000000	much in
0.0540000000	several non
0.0540000000	use by
0.0540000000	first with
0.0540000000	first part
0.0540000000	than non
0.0540000000	as time
0.0540000000	as various
0.0540000000	two such
0.0540000000	two example
0.0540000000	particular on
0.0540000000	different possible
0.0540000000	due in
0.0540000000	several useful
0.0540000000	than in
0.0540000000	several possible
0.0540000000	s work
0.0540000000	as of
0.0540000000	as self
0.0540000000	yet very
0.0540000000	as on
0.0540000000	first give
0.0540000000	as sequential
0.0540000000	than as
0.0540000000	as other
0.0540000000	2002 and
0.0540000000	as particular
0.0540000000	than three
0.0540000000	as yet
0.0540000000	best system
0.0540000000	as using
0.0540000000	into more
0.0540000000	as full
0.0540000000	as computer
0.0540000000	into k
0.0540000000	as more
0.0540000000	as o
0.0540000000	as both
0.0540000000	into such
0.0540000000	into four
0.0540000000	as whether
0.0540000000	into sub
0.0540000000	into various
0.0540000000	as described
0.0540000000	as people
0.0540000000	as if
0.0540000000	as not
0.0540000000	particular in
0.0540000000	as several
0.0540000000	several such
0.0540000000	as done
0.0540000000	into non
0.0540000000	s interest
0.0540000000	as necessary
0.0540000000	as side
0.0540000000	into five
0.0540000000	than four
0.0540000000	two sub
0.0540000000	use various
0.0540000000	two possible
0.0540000000	two well
0.0540000000	two very
0.0540000000	two most
0.0540000000	as per
0.0540000000	particular for
0.0540000000	than on
0.0540000000	here and
0.0540000000	s system
0.0540000000	than many
0.0540000000	than by
0.0540000000	than from
0.0540000000	than either
0.0540000000	than or
0.0540000000	than for
0.0540000000	into different
0.0540000000	respectively with
0.0540000000	respectively for
0.0540000000	respectively to
0.0540000000	respectively on
0.0540000000	hence in
0.0540000000	always available
0.0540000000	always possible
0.0540000000	down into
0.0540000000	down and
0.0540000000	later in
0.0540000000	2016 and
0.0540000000	quite well
0.0540000000	out using
0.0540000000	above two
0.0540000000	above and
0.0540000000	2010 and
0.0540000000	on certain
0.0540000000	before in
0.0540000000	goes to
0.0540000000	if so
0.0540000000	on given
0.0540000000	however only
0.0540000000	each example
0.0540000000	towards better
0.0540000000	from sequential
0.0540000000	name and
0.0540000000	3 or
0.0540000000	3 in
0.0540000000	3 for
0.0540000000	so for
0.0540000000	so by
0.0540000000	so with
0.0540000000	so in
0.0540000000	k mean
0.0540000000	second and
0.0540000000	many possible
0.0540000000	second to
0.0540000000	second in
0.0540000000	second most
0.0540000000	second best
0.0540000000	second one
0.0540000000	second part
0.0540000000	detail in
0.0540000000	detail and
0.0540000000	3 and
0.0540000000	second for
0.0540000000	second with
0.0540000000	2007 and
0.0540000000	many known
0.0540000000	so many
0.0540000000	so well
0.0540000000	from sub
0.0540000000	from most
0.0540000000	on much
0.0540000000	for under
0.0540000000	on over
0.0540000000	on or
0.0540000000	for relatively
0.0540000000	for near
0.0540000000	however with
0.0540000000	however not
0.0540000000	many non
0.0540000000	same for
0.0540000000	however at
0.0540000000	many new
0.0540000000	for e
0.0540000000	from three
0.0540000000	becomes one
0.0540000000	however by
0.0540000000	on second
0.0540000000	second on
0.0540000000	from and
0.0540000000	on using
0.0540000000	however to
0.0540000000	if available
0.0540000000	however little
0.0540000000	many time
0.0540000000	however often
0.0540000000	however using
0.0540000000	for good
0.0540000000	many well
0.0540000000	for full
0.0540000000	however even
0.0540000000	same as
0.0540000000	however different
0.0540000000	however several
0.0540000000	from few
0.0540000000	on sub
0.0540000000	on whole
0.0540000000	on people
0.0540000000	for self
0.0540000000	on either
0.0540000000	on i
0.0540000000	many useful
0.0540000000	on eight
0.0540000000	on going
0.0540000000	on nine
0.0540000000	for specifying
0.0540000000	on non
0.0540000000	on seven
0.0540000000	becomes possible
0.0540000000	however given
0.0540000000	from only
0.0540000000	for five
0.0540000000	on sequential
0.0540000000	on well
0.0540000000	on only
0.0540000000	on full
0.0540000000	from co
0.0540000000	third of
0.0540000000	on almost
0.0540000000	each such
0.0540000000	on other
0.0540000000	many as
0.0540000000	on few
0.0540000000	on novel
0.0540000000	for next
0.0540000000	for over
0.0540000000	on whether
0.0540000000	from using
0.0540000000	zero as
0.0540000000	on new
0.0540000000	name of
0.0540000000	for possible
0.0540000000	on zero
0.0540000000	for six
0.0540000000	towards more
0.0540000000	for about
0.0540000000	many such
0.0540000000	above by
0.0540000000	however few
0.0540000000	for well
0.0540000000	however because
0.0540000000	for few
0.0540000000	for off
0.0540000000	zero or
0.0540000000	for novel
0.0540000000	for very
0.0540000000	on available
0.0540000000	for re
0.0540000000	from others
0.0540000000	for four
0.0540000000	for particular
0.0540000000	for almost
0.0540000000	for on
0.0540000000	for whole
0.0540000000	however one
0.0540000000	for only
0.0540000000	for doing
0.0540000000	for sub
0.0540000000	for given
0.0540000000	for even
0.0540000000	2011 to
0.0540000000	however while
0.0540000000	on many
0.0540000000	from over
0.0540000000	from such
0.0540000000	from just
0.0540000000	3 on
0.0540000000	from many
0.0540000000	3 to
0.0540000000	from all
0.0540000000	from zero
0.0540000000	from still
0.0540000000	from m
0.0540000000	from known
0.0540000000	from full
0.0540000000	from within
0.0540000000	from given
0.0540000000	from new
0.0540000000	for using
0.0540000000	from five
0.0540000000	from top
0.0540000000	3 of
0.0540000000	each day
0.0540000000	each with
0.0540000000	if possible
0.0540000000	follows from
0.0540000000	from four
0.0540000000	from above
0.0540000000	from below
0.0540000000	if necessary
0.0540000000	for others
0.0540000000	k best
0.0540000000	if such
0.0540000000	if only
0.0540000000	if two
0.0540000000	each and
0.0540000000	each possible
0.0540000000	each particular
0.0540000000	each system
0.0540000000	for later
0.0540000000	same time
0.0540000000	13 and
0.0540000000	so much
0.0540000000	if and
0.0540000000	2011 and
0.0540000000	on such
0.0540000000	on ten
0.0540000000	following two
0.0540000000	becomes available
0.0540000000	2004 and
0.0540000000	becomes very
0.0540000000	12 and
0.0540000000	zero and
0.0540000000	said to
0.0540000000	near to
0.0540000000	provides useful
0.0540000000	the meanwhile
0.0540000000	not currently
0.0540000000	not need
0.0540000000	some given
0.0540000000	some example
0.0540000000	mainly by
0.0540000000	mainly on
0.0540000000	just in
0.0540000000	the useful
0.0540000000	most appropriate
0.0540000000	already in
0.0540000000	mainly for
0.0540000000	made more
0.0540000000	consider several
0.0540000000	some or
0.0540000000	despite of
0.0540000000	most used
0.0540000000	not allow
0.0540000000	need in
0.0540000000	need only
0.0540000000	not in
0.0540000000	the further
0.0540000000	do well
0.0540000000	do for
0.0540000000	etc and
0.0540000000	some novel
0.0540000000	most other
0.0540000000	consider here
0.0540000000	consider three
0.0540000000	consider different
0.0540000000	consider and
0.0540000000	consider in
0.0540000000	consider more
0.0540000000	consider only
0.0540000000	most well
0.0540000000	not get
0.0540000000	moreover under
0.0540000000	provides for
0.0540000000	some possible
0.0540000000	the several
0.0540000000	made between
0.0540000000	moreover since
0.0540000000	the empty
0.0540000000	wants to
0.0540000000	the ten
0.0540000000	provides both
0.0540000000	some time
0.0540000000	moreover as
0.0540000000	some useful
0.0540000000	the later
0.0540000000	the z
0.0540000000	the almost
0.0540000000	the much
0.0540000000	not with
0.0540000000	the few
0.0540000000	not used
0.0540000000	not and
0.0540000000	not seen
0.0540000000	not at
0.0540000000	not give
0.0540000000	not appropriate
0.0540000000	not use
0.0540000000	not to
0.0540000000	not given
0.0540000000	not consider
0.0540000000	not by
0.0540000000	most o
0.0540000000	not on
0.0540000000	just to
0.0540000000	not usually
0.0540000000	do and
0.0540000000	not good
0.0540000000	some particular
0.0540000000	do with
0.0540000000	not least
0.0540000000	moreover in
0.0540000000	not necessary
0.0540000000	2009 and
0.0540000000	the front
0.0540000000	not find
0.0540000000	most part
0.0540000000	most useful
0.0540000000	most such
0.0540000000	the currently
0.0540000000	not very
0.0540000000	mainly in
0.0540000000	not found
0.0540000000	not know
0.0540000000	most work
0.0540000000	not as
0.0540000000	provides several
0.0540000000	the often
0.0540000000	not of
0.0540000000	some detail
0.0540000000	the year
0.0540000000	not work
0.0540000000	most often
0.0540000000	not from
0.0540000000	provides new
0.0540000000	not contain
0.0540000000	not for
0.0540000000	the likely
0.0540000000	despite using
0.0540000000	not appear
0.0540000000	not make
0.0540000000	most k
0.0540000000	moreover most
0.0540000000	the immediate
0.0540000000	the said
0.0540000000	the relatively
0.0540000000	just by
0.0540000000	some very
0.0540000000	the described
0.0540000000	the six
0.0540000000	the seven
0.0540000000	moreover for
0.0540000000	some non
0.0540000000	some way
0.0540000000	some known
0.0540000000	some others
0.0540000000	do in
0.0540000000	moreover to
0.0540000000	the ill
0.0540000000	made and
0.0540000000	the un
0.0540000000	made with
0.0540000000	made of
0.0540000000	some part
0.0540000000	the less
0.0540000000	moreover using
0.0540000000	the already
0.0540000000	need of
0.0540000000	made about
0.0540000000	made from
0.0540000000	provides good
0.0540000000	the eight
0.0540000000	the ever
0.0540000000	made for
0.0540000000	moreover two
0.0540000000	moreover by
0.0540000000	moreover with
0.0540000000	not even
0.0540000000	therefore to
0.0540000000	currently not
0.0540000000	using five
0.0540000000	up of
0.0540000000	make such
0.0540000000	through use
0.0540000000	using other
0.0540000000	needs in
0.0540000000	needs and
0.0540000000	necessary in
0.0540000000	found and
0.0540000000	found at
0.0540000000	found for
0.0540000000	currently used
0.0540000000	another in
0.0540000000	another and
0.0540000000	front of
0.0540000000	found using
0.0540000000	found through
0.0540000000	take two
0.0540000000	take on
0.0540000000	make better
0.0540000000	make available
0.0540000000	make more
0.0540000000	known or
0.0540000000	therefore several
0.0540000000	up and
0.0540000000	all in
0.0540000000	known by
0.0540000000	known ones
0.0540000000	known and
0.0540000000	known from
0.0540000000	known but
0.0540000000	make several
0.0540000000	using four
0.0540000000	through many
0.0540000000	using more
0.0540000000	about various
0.0540000000	about whether
0.0540000000	about different
0.0540000000	through various
0.0540000000	all but
0.0540000000	needs for
0.0540000000	over four
0.0540000000	over two
0.0540000000	over various
0.0540000000	over others
0.0540000000	over many
0.0540000000	over both
0.0540000000	found with
0.0540000000	using as
0.0540000000	using several
0.0540000000	make full
0.0540000000	over using
0.0540000000	all available
0.0540000000	using such
0.0540000000	system also
0.0540000000	over three
0.0540000000	currently most
0.0540000000	through several
0.0540000000	over more
0.0540000000	over such
0.0540000000	using many
0.0540000000	using non
0.0540000000	up in
0.0540000000	using very
0.0540000000	system uses
0.0540000000	all others
0.0540000000	system from
0.0540000000	using q
0.0540000000	over possible
0.0540000000	over one
0.0540000000	using appropriate
0.0540000000	system or
0.0540000000	another way
0.0540000000	found on
0.0540000000	system allows
0.0540000000	know in
0.0540000000	about one
0.0540000000	all five
0.0540000000	using n
0.0540000000	over non
0.0540000000	using just
0.0540000000	therefore not
0.0540000000	using one
0.0540000000	such changes
0.0540000000	using time
0.0540000000	system at
0.0540000000	using available
0.0540000000	system first
0.0540000000	using novel
0.0540000000	system as
0.0540000000	through different
0.0540000000	through two
0.0540000000	using sequential
0.0540000000	about two
0.0540000000	system through
0.0540000000	system more
0.0540000000	system by
0.0540000000	system used
0.0540000000	system but
0.0540000000	system under
0.0540000000	system into
0.0540000000	system via
0.0540000000	system without
0.0540000000	system call
0.0540000000	using first
0.0540000000	needs of
0.0540000000	all such
0.0540000000	all known
0.0540000000	all or
0.0540000000	all and
0.0540000000	all non
0.0540000000	all time
0.0540000000	using much
0.0540000000	using self
0.0540000000	using either
0.0540000000	about other
0.0540000000	using mean
0.0540000000	using value
0.0540000000	using new
0.0540000000	therefore many
0.0540000000	4 to
0.0540000000	of corresponding
0.0540000000	of best
0.0540000000	of already
0.0540000000	get more
0.0540000000	get better
0.0540000000	go on
0.0540000000	go to
0.0540000000	enough and
0.0540000000	become one
0.0540000000	of trying
0.0540000000	of getting
0.0540000000	of next
0.0540000000	of very
0.0540000000	only with
0.0540000000	i describe
0.0540000000	back into
0.0540000000	no work
0.0540000000	no or
0.0540000000	no further
0.0540000000	useful as
0.0540000000	useful and
0.0540000000	course of
0.0540000000	of likely
0.0540000000	of over
0.0540000000	of much
0.0540000000	of whether
0.0540000000	of full
0.0540000000	no such
0.0540000000	no better
0.0540000000	but such
0.0540000000	become available
0.0540000000	against various
0.0540000000	against two
0.0540000000	given for
0.0540000000	enough for
0.0540000000	only by
0.0540000000	only show
0.0540000000	i also
0.0540000000	i use
0.0540000000	of specifying
0.0540000000	against other
0.0540000000	neither of
0.0540000000	of associated
0.0540000000	of cause
0.0540000000	whether and
0.0540000000	whether such
0.0540000000	whether to
0.0540000000	whether two
0.0540000000	whether one
0.0540000000	whether or
0.0540000000	particularly with
0.0540000000	of useful
0.0540000000	computer system
0.0540000000	computer with
0.0540000000	together using
0.0540000000	together into
0.0540000000	together to
0.0540000000	together and
0.0540000000	but even
0.0540000000	comes in
0.0540000000	together by
0.0540000000	of given
0.0540000000	of others
0.0540000000	i to
0.0540000000	of per
0.0540000000	almost as
0.0540000000	more in
0.0540000000	but if
0.0540000000	more of
0.0540000000	of whole
0.0540000000	but more
0.0540000000	only once
0.0540000000	only able
0.0540000000	against such
0.0540000000	i show
0.0540000000	more on
0.0540000000	particularly well
0.0540000000	given n
0.0540000000	only little
0.0540000000	of further
0.0540000000	but much
0.0540000000	of off
0.0540000000	of detail
0.0540000000	of overall
0.0540000000	of so
0.0540000000	of least
0.0540000000	only non
0.0540000000	only using
0.0540000000	but allows
0.0540000000	of about
0.0540000000	very likely
0.0540000000	of value
0.0540000000	together for
0.0540000000	of almost
0.0540000000	only allow
0.0540000000	only as
0.0540000000	of zero
0.0540000000	of relatively
0.0540000000	of appropriate
0.0540000000	only possible
0.0540000000	only at
0.0540000000	of either
0.0540000000	of better
0.0540000000	of just
0.0540000000	of considering
0.0540000000	only o
0.0540000000	only uses
0.0540000000	of bottom
0.0540000000	only used
0.0540000000	given and
0.0540000000	only provides
0.0540000000	of necessary
0.0540000000	more about
0.0540000000	of seven
0.0540000000	of nine
0.0540000000	but of
0.0540000000	of following
0.0540000000	of old
0.0540000000	of example
0.0540000000	of top
0.0540000000	of good
0.0540000000	of between
0.0540000000	only make
0.0540000000	of name
0.0540000000	more time
0.0540000000	against different
0.0540000000	but using
0.0540000000	of work
0.0540000000	of nearly
0.0540000000	very often
0.0540000000	computer and
0.0540000000	of only
0.0540000000	of even
0.0540000000	computer to
0.0540000000	but one
0.0540000000	4 and
0.0540000000	of around
0.0540000000	of under
0.0540000000	only work
0.0540000000	particularly on
0.0540000000	given one
0.0540000000	after only
0.0540000000	of inner
0.0540000000	of right
0.0540000000	only known
0.0540000000	but to
0.0540000000	of not
0.0540000000	2006 and
0.0540000000	of eight
0.0540000000	of less
0.0540000000	of few
0.0540000000	of ten
0.0540000000	given on
0.0540000000	only two
0.0540000000	but many
0.0540000000	back and
0.0540000000	only four
0.0540000000	only allows
0.0540000000	only consider
0.0540000000	only and
0.0540000000	but for
0.0540000000	but on
0.0540000000	but different
0.0540000000	but by
0.0540000000	but as
0.0540000000	but less
0.0540000000	but non
0.0540000000	of sub
0.0540000000	but very
0.0540000000	but few
0.0540000000	of i
0.0540000000	but little
0.0540000000	particularly at
0.0540000000	only use
0.0540000000	only of
0.0540000000	only from
0.0540000000	only three
0.0540000000	no known
0.0540000000	but without
0.0540000000	via two
0.0540000000	given such
0.0540000000	4 of
0.0540000000	against several
0.0540000000	of back
0.0540000000	of doing
0.0540000000	via non
0.0540000000	given two
0.0540000000	indeed in
0.0540000000	only available
0.0540000000	more detail
0.0540000000	indicated by
0.0540000000	4 different
0.0540000000	90 of
0.0540000000	90 and
0.0540000000	allow more
0.0540000000	least for
0.0540000000	to contain
0.0540000000	give more
0.0540000000	give two
0.0540000000	give new
0.0540000000	give better
0.0540000000	little as
0.0540000000	least mean
0.0540000000	16 and
0.0540000000	exactly and
0.0540000000	exactly in
0.0540000000	exactly by
0.0540000000	exactly one
0.0540000000	while not
0.0540000000	specified in
0.0540000000	put on
0.0540000000	put in
0.0540000000	any more
0.0540000000	any off
0.0540000000	any non
0.0540000000	any system
0.0540000000	any such
0.0540000000	to c
0.0540000000	often than
0.0540000000	give good
0.0540000000	these same
0.0540000000	described using
0.0540000000	described with
0.0540000000	to much
0.0540000000	while several
0.0540000000	while such
0.0540000000	although not
0.0540000000	although such
0.0540000000	although various
0.0540000000	although in
0.0540000000	exactly as
0.0540000000	possible if
0.0540000000	to overall
0.0540000000	specified as
0.0540000000	possible way
0.0540000000	least in
0.0540000000	thus not
0.0540000000	thus to
0.0540000000	often much
0.0540000000	often make
0.0540000000	often use
0.0540000000	often found
0.0540000000	least two
0.0540000000	least one
0.0540000000	often more
0.0540000000	to others
0.0540000000	these to
0.0540000000	to almost
0.0540000000	to certain
0.0540000000	to first
0.0540000000	to mean
0.0540000000	to such
0.0540000000	while other
0.0540000000	an even
0.0540000000	to right
0.0540000000	to all
0.0540000000	to at
0.0540000000	least three
0.0540000000	to ten
0.0540000000	often in
0.0540000000	thus more
0.0540000000	least as
0.0540000000	these four
0.0540000000	an f
0.0540000000	to thoroughly
0.0540000000	because in
0.0540000000	to cause
0.0540000000	an inner
0.0540000000	mean value
0.0540000000	to even
0.0540000000	to people
0.0540000000	to full
0.0540000000	to corresponding
0.0540000000	to six
0.0540000000	an old
0.0540000000	thus in
0.0540000000	to most
0.0540000000	to relatively
0.0540000000	to or
0.0540000000	often non
0.0540000000	to tell
0.0540000000	an e
0.0540000000	to back
0.0540000000	to appear
0.0540000000	to sequential
0.0540000000	re use
0.0540000000	to non
0.0540000000	an under
0.0540000000	to well
0.0540000000	thus allows
0.0540000000	to co
0.0540000000	to exactly
0.0540000000	an otherwise
0.0540000000	to five
0.0540000000	to just
0.0540000000	an already
0.0540000000	any further
0.0540000000	while on
0.0540000000	while much
0.0540000000	an all
0.0540000000	to believe
0.0540000000	to also
0.0540000000	to given
0.0540000000	to think
0.0540000000	these in
0.0540000000	move from
0.0540000000	to over
0.0540000000	to four
0.0540000000	to let
0.0540000000	to shed
0.0540000000	value as
0.0540000000	to within
0.0540000000	thus provides
0.0540000000	to now
0.0540000000	although several
0.0540000000	to particular
0.0540000000	these with
0.0540000000	to nearly
0.0540000000	to about
0.0540000000	these non
0.0540000000	to to
0.0540000000	2013 and
0.0540000000	to possible
0.0540000000	to known
0.0540000000	to whether
0.0540000000	to l
0.0540000000	to sub
0.0540000000	often better
0.0540000000	these as
0.0540000000	any way
0.0540000000	specified and
0.0540000000	to best
0.0540000000	often very
0.0540000000	to three
0.0540000000	value by
0.0540000000	to either
0.0540000000	to near
0.0540000000	to only
0.0540000000	often need
0.0540000000	while for
0.0540000000	any new
0.0540000000	often only
0.0540000000	while many
0.0540000000	often by
0.0540000000	while only
0.0540000000	give several
0.0540000000	while in
0.0540000000	while considering
0.0540000000	often with
0.0540000000	value to
0.0540000000	possible without
0.0540000000	these novel
0.0540000000	possible by
0.0540000000	possible from
0.0540000000	to out
0.0540000000	possible using
0.0540000000	possible with
0.0540000000	possible under
0.0540000000	possible because
0.0540000000	possible and
0.0540000000	possible but
0.0540000000	possible in
0.0540000000	little to
0.0540000000	to i
0.0540000000	move to
0.0540000000	move and
0.0540000000	move in
0.0540000000	value with
0.0540000000	value in
0.0540000000	value or
0.0540000000	own and
0.0540000000	allow to
0.0540000000	again and
0.0540000000	re using
0.0540000000	9 and
0.0540000000	contains many
0.0540000000	time but
0.0540000000	time or
0.0540000000	example by
0.0540000000	example using
0.0540000000	containing over
0.0540000000	containing only
0.0540000000	example on
0.0540000000	time with
0.0540000000	also in
0.0540000000	good as
0.0540000000	example to
0.0540000000	example in
0.0540000000	example with
0.0540000000	by example
0.0540000000	better on
0.0540000000	done through
0.0540000000	done for
0.0540000000	done to
0.0540000000	also uses
0.0540000000	time if
0.0540000000	time taken
0.0540000000	time at
0.0540000000	time per
0.0540000000	time without
0.0540000000	time even
0.0540000000	time while
0.0540000000	time as
0.0540000000	time on
0.0540000000	time during
0.0540000000	time than
0.0540000000	by now
0.0540000000	by people
0.0540000000	by various
0.0540000000	allows more
0.0540000000	between corresponding
0.0540000000	example and
0.0540000000	example for
0.0540000000	good for
0.0540000000	by several
0.0540000000	within such
0.0540000000	clearly show
0.0540000000	furthermore to
0.0540000000	7 and
0.0540000000	further allows
0.0540000000	further used
0.0540000000	further and
0.0540000000	also to
0.0540000000	at many
0.0540000000	by almost
0.0540000000	also given
0.0540000000	by novel
0.0540000000	also on
0.0540000000	by i
0.0540000000	also from
0.0540000000	by new
0.0540000000	by non
0.0540000000	by most
0.0540000000	by both
0.0540000000	by others
0.0540000000	by different
0.0540000000	by one
0.0540000000	by four
0.0540000000	by only
0.0540000000	by certain
0.0540000000	contains over
0.0540000000	good at
0.0540000000	furthermore in
0.0540000000	also possible
0.0540000000	by self
0.0540000000	also gives
0.0540000000	also contains
0.0540000000	also available
0.0540000000	also for
0.0540000000	time over
0.0540000000	also with
0.0540000000	by further
0.0540000000	by also
0.0540000000	by far
0.0540000000	by trying
0.0540000000	by appropriate
0.0540000000	100 and
0.0540000000	by computer
0.0540000000	done at
0.0540000000	also much
0.0540000000	also by
0.0540000000	time via
0.0540000000	by over
0.0540000000	by either
0.0540000000	various non
0.0540000000	further to
0.0540000000	by just
0.0540000000	between several
0.0540000000	between three
0.0540000000	also well
0.0540000000	also more
0.0540000000	by about
0.0540000000	between such
0.0540000000	between various
0.0540000000	between one
0.0540000000	ask for
0.0540000000	by nearly
0.0540000000	time given
0.0540000000	also described
0.0540000000	time using
0.0540000000	at both
0.0540000000	by around
0.0540000000	by looking
0.0540000000	by specifying
0.0540000000	by doing
0.0540000000	by such
0.0540000000	within one
0.0540000000	also allow
0.0540000000	between four
0.0540000000	better with
0.0540000000	also help
0.0540000000	by re
0.0540000000	also indicate
0.0540000000	at very
0.0540000000	by many
0.0540000000	at several
0.0540000000	at using
0.0540000000	at one
0.0540000000	at best
0.0540000000	at over
0.0540000000	at three
0.0540000000	at two
0.0540000000	by three
0.0540000000	time by
0.0540000000	6 and
0.0540000000	better able
0.0540000000	better in
0.0540000000	better to
0.0540000000	better and
0.0540000000	better for
0.0540000000	better at
0.0540000000	time from
0.0540000000	better as
0.0540000000	contains two
0.0540000000	time through
0.0540000000	contains only
0.0540000000	various other
0.0540000000	by other
0.0540000000	furthermore since
0.0540000000	contains three
0.0540000000	furthermore by
0.0540000000	furthermore for
0.0540000000	further in
0.0540000000	by not
0.0540000000	further by
0.0540000000	also make
0.0540000000	also as
0.0540000000	also made
0.0540000000	also useful
0.0540000000	also very
0.0540000000	better overall
0.0540000000	various different
0.0540000000	further work
0.0540000000	further use
0.0540000000	gives good
0.0540000000	last two
0.0540000000	though many
0.0540000000	last three
0.0540000000	others and
0.0540000000	others for
0.0540000000	others in
0.0540000000	others to
0.0540000000	ever more
0.0540000000	going from
0.0540000000	regards to
0.0540000000	2014 and
0.0540000000	even before
0.0540000000	find new
0.0540000000	find and
0.0540000000	uses for
0.0540000000	uses two
0.0540000000	look to
0.0540000000	far and
0.0540000000	far in
0.0540000000	far as
0.0540000000	uses of
0.0540000000	far better
0.0540000000	part in
0.0540000000	part by
0.0540000000	and almost
0.0540000000	50 of
0.0540000000	uses different
0.0540000000	with part
0.0540000000	next and
0.0540000000	well by
0.0540000000	contain only
0.0540000000	way from
0.0540000000	way or
0.0540000000	way with
0.0540000000	way as
0.0540000000	way and
0.0540000000	unfortunately such
0.0540000000	unfortunately most
0.0540000000	95 of
0.0540000000	2017 and
0.0540000000	those two
0.0540000000	those using
0.0540000000	across several
0.0540000000	find good
0.0540000000	contain many
0.0540000000	way on
0.0540000000	way into
0.0540000000	sequential and
0.0540000000	well and
0.0540000000	with about
0.0540000000	looks for
0.0540000000	and f
0.0540000000	non sequential
0.0540000000	with enough
0.0540000000	with possible
0.0540000000	way using
0.0540000000	those found
0.0540000000	call such
0.0540000000	interest with
0.0540000000	with others
0.0540000000	across three
0.0540000000	well know
0.0540000000	find more
0.0540000000	and best
0.0540000000	well beyond
0.0540000000	call for
0.0540000000	with least
0.0540000000	and getting
0.0540000000	and once
0.0540000000	next to
0.0540000000	and made
0.0540000000	and such
0.0540000000	and outside
0.0540000000	and people
0.0540000000	and below
0.0540000000	and causes
0.0540000000	across four
0.0540000000	and later
0.0540000000	and far
0.0540000000	101 and
0.0540000000	and appropriate
0.0540000000	and ill
0.0540000000	and nearly
0.0540000000	and becomes
0.0540000000	and tries
0.0540000000	and right
0.0540000000	and down
0.0540000000	and six
0.0540000000	and co
0.0540000000	and mean
0.0540000000	and last
0.0540000000	and here
0.0540000000	and help
0.0540000000	and perhaps
0.0540000000	and above
0.0540000000	way in
0.0540000000	and novel
0.0540000000	and all
0.0540000000	and beyond
0.0540000000	and ask
0.0540000000	with six
0.0540000000	and need
0.0540000000	and etc
0.0540000000	and secondly
0.0540000000	and despite
0.0540000000	and system
0.0540000000	and while
0.0540000000	with just
0.0540000000	happens in
0.0540000000	and indeed
0.0540000000	and little
0.0540000000	and good
0.0540000000	and very
0.0540000000	and contains
0.0540000000	with computer
0.0540000000	and whether
0.0540000000	with b
0.0540000000	part to
0.0540000000	with five
0.0540000000	with same
0.0540000000	with seven
0.0540000000	with novel
0.0540000000	and third
0.0540000000	well even
0.0540000000	with given
0.0540000000	with certain
0.0540000000	with associated
0.0540000000	with four
0.0540000000	with c
0.0540000000	with even
0.0540000000	with all
0.0540000000	and although
0.0540000000	and otherwise
0.0540000000	with top
0.0540000000	and get
0.0540000000	with off
0.0540000000	with relatively
0.0540000000	with sub
0.0540000000	even further
0.0540000000	with zero
0.0540000000	with few
0.0540000000	and near
0.0540000000	with new
0.0540000000	and work
0.0540000000	with sequential
0.0540000000	with using
0.0540000000	with nearly
0.0540000000	with so
0.0540000000	and across
0.0540000000	and next
0.0540000000	with better
0.0540000000	far to
0.0540000000	and against
0.0540000000	and shed
0.0540000000	and several
0.0540000000	and overall
0.0540000000	with further
0.0540000000	and considering
0.0540000000	even to
0.0540000000	and instead
0.0540000000	even using
0.0540000000	and none
0.0540000000	and contain
0.0540000000	with corresponding
0.0540000000	and accordingly
0.0540000000	with mean
0.0540000000	and needs
0.0540000000	and possible
0.0540000000	and well
0.0540000000	well for
0.0540000000	and particularly
0.0540000000	well under
0.0540000000	way towards
0.0540000000	with almost
0.0540000000	and take
0.0540000000	and top
0.0540000000	with full
0.0540000000	and consider
0.0540000000	and let
0.0540000000	and under
0.0540000000	and five
0.0540000000	and useful
0.0540000000	with near
0.0540000000	with time
0.0540000000	with self
0.0540000000	and sequential
0.0540000000	with most
0.0540000000	and about
0.0540000000	and known
0.0540000000	with appropriate
0.0540000000	and moreover
0.0540000000	and bottom
0.0540000000	and usually
0.0540000000	and relatively
0.0540000000	and mine
0.0540000000	and de
0.0540000000	interest of
0.0540000000	and side
0.0540000000	and via
0.0540000000	and indicate
0.0540000000	and among
0.0540000000	and within
0.0540000000	with far
0.0540000000	well but
0.0540000000	with particular
0.0540000000	part because
0.0540000000	and four
0.0540000000	and still
0.0540000000	and following
0.0540000000	find in
0.0540000000	and since
0.0540000000	and full
0.0540000000	and especially
0.0540000000	and j
0.0540000000	and tell
0.0540000000	and detail
0.0540000000	and available
0.0540000000	and go
0.0540000000	and g
0.0540000000	find such
0.0540000000	even from
0.0540000000	and fire
0.0540000000	and after
0.0540000000	n best
0.0540000000	and necessary
0.0540000000	and back
0.0540000000	and value
0.0540000000	come to
0.0540000000	well or
0.0540000000	15 and
0.0540000000	50 and
0.0540000000	across two
0.0540000000	2000 and
0.0540000000	with u
0.0540000000	and re
0.0540000000	and zero
0.0540000000	well across
0.0540000000	those for
0.0540000000	well without
0.0540000000	way by
0.0540000000	interest as
0.0540000000	and sub
0.0540000000	and call
0.0540000000	and much
0.0540000000	and used
0.0540000000	and through
0.0540000000	and meanwhile
0.0540000000	and certain
0.0540000000	and furthermore
0.0540000000	and again
0.0540000000	interest by
0.0540000000	interest and
0.0540000000	interest using
0.0540000000	interest on
0.0540000000	interest within
0.0540000000	come in
0.0540000000	come at
0.0540000000	look in
0.0540000000	with on
0.0540000000	even at
0.0540000000	even by
0.0540000000	and put
0.0540000000	with over
0.0540000000	below by
0.0540000000	99 of
0.0540000000	70 of
0.0540000000	causes for
0.0540000000	like and
0.0540000000	a year
0.0540000000	available upon
0.0540000000	2005 and
0.0540000000	or on
0.0540000000	in very
0.0540000000	a o
0.0540000000	under several
0.0540000000	now available
0.0540000000	now in
0.0540000000	1 from
0.0540000000	in either
0.0540000000	in whole
0.0540000000	describe in
0.0540000000	describe several
0.0540000000	describe and
0.0540000000	1 or
0.0540000000	four of
0.0540000000	now well
0.0540000000	once and
0.0540000000	20 different
0.0540000000	20 of
0.0540000000	a last
0.0540000000	0 for
0.0540000000	whereas in
0.0540000000	a far
0.0540000000	available by
0.0540000000	5 of
0.0540000000	whole system
0.0540000000	a cause
0.0540000000	under off
0.0540000000	in self
0.0540000000	under non
0.0540000000	5 to
0.0540000000	or used
0.0540000000	or use
0.0540000000	a per
0.0540000000	or several
0.0540000000	under three
0.0540000000	under many
0.0540000000	under appropriate
0.0540000000	under very
0.0540000000	under such
0.0540000000	0 or
0.0540000000	in better
0.0540000000	10 and
0.0540000000	describe three
0.0540000000	available during
0.0540000000	available under
0.0540000000	available only
0.0540000000	available with
0.0540000000	available but
0.0540000000	available through
0.0540000000	available or
0.0540000000	especially to
0.0540000000	especially as
0.0540000000	especially if
0.0540000000	especially with
0.0540000000	or using
0.0540000000	a hundred
0.0540000000	or four
0.0540000000	20 and
0.0540000000	or full
0.0540000000	or system
0.0540000000	or three
0.0540000000	or under
0.0540000000	in use
0.0540000000	or if
0.0540000000	or otherwise
0.0540000000	a reasonably
0.0540000000	a quite
0.0540000000	available and
0.0540000000	a look
0.0540000000	or few
0.0540000000	or against
0.0540000000	or without
0.0540000000	5 and
0.0540000000	or as
0.0540000000	whereas for
0.0540000000	like in
0.0540000000	or one
0.0540000000	a thin
0.0540000000	75 of
0.0540000000	or at
0.0540000000	or sub
0.0540000000	30 of
0.0540000000	a name
0.0540000000	year of
0.0540000000	or time
0.0540000000	a c
0.0540000000	a somewhat
0.0540000000	in second
0.0540000000	2003 and
0.0540000000	or very
0.0540000000	or less
0.0540000000	a course
0.0540000000	in others
0.0540000000	1 of
0.0540000000	or sequential
0.0540000000	or make
0.0540000000	a next
0.0540000000	a particularly
0.0540000000	a same
0.0540000000	in almost
0.0540000000	in or
0.0540000000	or by
0.0540000000	in over
0.0540000000	in four
0.0540000000	in doing
0.0540000000	in near
0.0540000000	or second
0.0540000000	in nearly
0.0540000000	in much
0.0540000000	in more
0.0540000000	in about
0.0540000000	a little
0.0540000000	1 as
0.0540000000	in sequential
0.0540000000	10 with
0.0540000000	in top
0.0540000000	in between
0.0540000000	in system
0.0540000000	or whether
0.0540000000	10 of
0.0540000000	or for
0.0540000000	in f
0.0540000000	or two
0.0540000000	in five
0.0540000000	like to
0.0540000000	in re
0.0540000000	d s
0.0540000000	in full
0.0540000000	1 using
0.0540000000	in good
0.0540000000	or so
0.0540000000	in certain
0.0540000000	a four
0.0540000000	in mean
0.0540000000	or with
0.0540000000	or only
0.0540000000	or near
0.0540000000	a re
0.0540000000	in novel
0.0540000000	a back
0.0540000000	in further
0.0540000000	a five
0.0540000000	or from
0.0540000000	a truly
0.0540000000	considering both
0.0540000000	a later
0.0540000000	a zero
0.0540000000	a best
0.0540000000	without much
0.0540000000	in sub
0.0540000000	1 in
0.0540000000	in just
0.0540000000	especially from
0.0540000000	in overall
0.0540000000	or value
0.0540000000	in later
0.0540000000	or new
0.0540000000	14 and
0.0540000000	or just
0.0540000000	1 s
0.0540000000	or almost
0.0540000000	like other
0.0540000000	or none
0.0540000000	in under
0.0540000000	think of
0.0540000000	2015 to
0.0540000000	5 on
0.0540000000	5 different
0.0540000000	people from
0.0540000000	people to
0.0540000000	people across
0.0540000000	11 and
0.0540000000	without such
0.0540000000	without further
0.0540000000	without re
0.0540000000	per time
0.0540000000	people use
0.0540000000	especially at
0.0540000000	10 different
0.0540000000	10 to
0.0540000000	0 to
0.0540000000	in non
0.0540000000	1 on
0.0540000000	in well
0.0540000000	80 of
0.0540000000	considering different
0.0540000000	considering only
0.0540000000	regarding to
0.0540000000	80 and
0.0540000000	25 of
0.0000000000	pulsar
0.0000000000	palettes
0.0000000000	psfs
0.0000000000	noiselet
0.0000000000	photoelectric
0.0000000000	navigability
0.0000000000	pta
0.0000000000	seo
0.0000000000	fvs
0.0000000000	patrolling
0.0000000000	acl2
0.0000000000	hedonic
0.0000000000	indivisible
0.0000000000	poultry
0.0000000000	backdoor
0.0000000000	dess
0.0000000000	equational
0.0000000000	characterisations
0.0000000000	spreadsheet
0.0000000000	rsw
0.0000000000	nvsm
0.0000000000	hqa
0.0000000000	acewiki
0.0000000000	fpt
0.0000000000	capacitor
0.0000000000	excitable
0.0000000000	vrptw
0.0000000000	turnover
0.0000000000	mco
0.0000000000	rados
0.0000000000	ogl
0.0000000000	graphlab
0.0000000000	rrf
0.0000000000	femtocells
0.0000000000	femtocell
0.0000000000	trader
0.0000000000	preemption
0.0000000000	maxq
0.0000000000	qos
0.0000000000	impervious
0.0000000000	dither
0.0000000000	ipi
0.0000000000	s3d
0.0000000000	tir
0.0000000000	saak
0.0000000000	ivqa
0.0000000000	dgm
0.0000000000	hololens
0.0000000000	shdl
0.0000000000	raspireader
0.0000000000	shapelets
0.0000000000	shapelet
0.0000000000	insulator
0.0000000000	tpc
0.0000000000	dfu
0.0000000000	ptav
0.0000000000	decolorization
0.0000000000	shufflenet
0.0000000000	dmt
0.0000000000	bmd
0.0000000000	vsl
0.0000000000	srr
0.0000000000	nrsfm
0.0000000000	frangi
0.0000000000	wsl
0.0000000000	wami
0.0000000000	noddi
0.0000000000	paste
0.0000000000	pallor
0.0000000000	cfr
0.0000000000	celeb
0.0000000000	virality
0.0000000000	endomicroscopy
0.0000000000	dcl
0.0000000000	cpm
0.0000000000	sfcn
0.0000000000	mandible
0.0000000000	kaze
0.0000000000	tubelet
0.0000000000	coplanar
0.0000000000	ice
0.0000000000	lineage
0.0000000000	sdn
0.0000000000	coronal
0.0000000000	sagittal
0.0000000000	ild
0.0000000000	trimap
0.0000000000	gliomas
0.0000000000	textboxes
0.0000000000	sisr
0.0000000000	sbir
0.0000000000	sod
0.0000000000	laparoscopic
0.0000000000	potholes
0.0000000000	thicknesses
0.0000000000	edema
0.0000000000	dme
0.0000000000	stixel
0.0000000000	reenactment
0.0000000000	pgt
0.0000000000	vegetables
0.0000000000	streak
0.0000000000	chroma
0.0000000000	recos
0.0000000000	bows
0.0000000000	asa
0.0000000000	streaks
0.0000000000	livdet
0.0000000000	mpf
0.0000000000	lytro
0.0000000000	endoscopes
0.0000000000	srdcf
0.0000000000	otb
0.0000000000	meningioma
0.0000000000	vp
0.0000000000	megaface
0.0000000000	occlude
0.0000000000	pansharpening
0.0000000000	lrs
0.0000000000	scut
0.0000000000	mellin
0.0000000000	multicut
0.0000000000	amodal
0.0000000000	plenoptic
0.0000000000	centerlines
0.0000000000	vhr
0.0000000000	tnrd
0.0000000000	asf
0.0000000000	300w
0.0000000000	ptz
0.0000000000	orb
0.0000000000	freak
0.0000000000	convlstm
0.0000000000	nowcasting
0.0000000000	illuminants
0.0000000000	janus
0.0000000000	rbir
0.0000000000	vslam
0.0000000000	efis
0.0000000000	gastrointestinal
0.0000000000	sun397
0.0000000000	slic
0.0000000000	epithelial
0.0000000000	auvs
0.0000000000	humaneva
0.0000000000	wsnm
0.0000000000	stent
0.0000000000	msra
0.0000000000	hevc
0.0000000000	lumbar
0.0000000000	barcode
0.0000000000	c3d
0.0000000000	frontalization
0.0000000000	photographer
0.0000000000	pce
0.0000000000	parallax
0.0000000000	hvs
0.0000000000	sociological
0.0000000000	washing
0.0000000000	aflw
0.0000000000	afw
0.0000000000	haze
0.0000000000	anscombe
0.0000000000	biofilm
0.0000000000	vertebral
0.0000000000	klt
0.0000000000	adiabatic
0.0000000000	supervoxels
0.0000000000	tnn
0.0000000000	braille
0.0000000000	wrinkles
0.0000000000	debris
0.0000000000	wearer
0.0000000000	corneal
0.0000000000	projectors
0.0000000000	projector
0.0000000000	kcf
0.0000000000	nyuv2
0.0000000000	ytf
0.0000000000	3dmm
0.0000000000	textureless
0.0000000000	quadcopter
0.0000000000	panoramas
0.0000000000	compressively
0.0000000000	stuff
0.0000000000	fencing
0.0000000000	floorplan
0.0000000000	musculoskeletal
0.0000000000	nfov
0.0000000000	reprojection
0.0000000000	thz
0.0000000000	biqa
0.0000000000	maca
0.0000000000	fddb
0.0000000000	flair
0.0000000000	sclerosis
0.0000000000	palette
0.0000000000	glcm
0.0000000000	infra
0.0000000000	tesseract
0.0000000000	handheld
0.0000000000	refractive
0.0000000000	deepid2
0.0000000000	cuhk
0.0000000000	retinex
0.0000000000	spoof
0.0000000000	nonrigid
0.0000000000	catheter
0.0000000000	shearlet
0.0000000000	gland
0.0000000000	skeletonization
0.0000000000	mser
0.0000000000	moon
0.0000000000	homography
0.0000000000	palm
0.0000000000	mitotic
0.0000000000	mitosis
0.0000000000	calcifications
0.0000000000	metamorphosis
0.0000000000	nss
0.0000000000	segregation
0.0000000000	pectoral
0.0000000000	asm
0.0000000000	yaw
0.0000000000	minutia
0.0000000000	ocular
0.0000000000	ycbcr
0.0000000000	contourlet
0.0000000000	cfa
0.0000000000	catchment
0.0000000000	toll
0.0000000000	illuminations
0.0000000000	eyebrows
0.0000000000	mocap
0.0000000000	vertebrae
0.0000000000	fringe
0.0000000000	radiometric
0.0000000000	attendance
0.0000000000	airway
0.0000000000	respiratory
0.0000000000	arteries
0.0000000000	frav2d
0.0000000000	anthropometric
0.0000000000	cohomology
0.0000000000	otsu
0.0000000000	implant
0.0000000000	trifocal
0.0000000000	aliased
0.0000000000	ltp
0.0000000000	esophagus
0.0000000000	bleeding
0.0000000000	watermarked
0.0000000000	watermark
0.0000000000	watermarking
0.0000000000	palmprint
0.0000000000	microcalcification
0.0000000000	tracklet
0.0000000000	photogrammetry
0.0000000000	vese
0.0000000000	imu
0.0000000000	curvelet
0.0000000000	deform
0.0000000000	renderings
0.0000000000	gvf
0.0000000000	undistortion
0.0000000000	raster
0.0000000000	pis
0.0000000000	dermoscopic
0.0000000000	eddy
0.0000000000	elongated
0.0000000000	epm
0.0000000000	rrt
0.0000000000	uoi
0.0000000000	drosophila
0.0000000000	bg
0.0000000000	pbo
0.0000000000	ssh
0.0000000000	confocal
0.0000000000	und
0.0000000000	glioma
0.0000000000	mgc
0.0000000000	ut
0.0000000000	spc
0.0000000000	intestinal
0.0000000000	ssr
0.0000000000	ocsvm
0.0000000000	clot
0.0000000000	qrs
0.0000000000	dwd
0.0000000000	rsf
0.0000000000	pesc
0.0000000000	modis
0.0000000000	bibliometrics
0.0000000000	unwrapping
0.0000000000	cgs
0.0000000000	bistatic
0.0000000000	incidental
0.0000000000	locked
0.0000000000	ihmm
0.0000000000	endmember
0.0000000000	od
0.0000000000	calorie
0.0000000000	tom
0.0000000000	homeostatic
0.0000000000	archival
0.0000000000	housing
0.0000000000	pushdown
0.0000000000	glucose
0.0000000000	dpc
0.0000000000	teaming
0.0000000000	epp
0.0000000000	restful
0.0000000000	moba
0.0000000000	qubo
0.0000000000	hfit
0.0000000000	panfis
0.0000000000	abandoned
0.0000000000	fml
0.0000000000	pseudorehearsal
0.0000000000	ctp
0.0000000000	dcop
0.0000000000	dcops
0.0000000000	aquaculture
0.0000000000	fisheries
0.0000000000	bob
0.0000000000	ramsey
0.0000000000	despot
0.0000000000	poincare
0.0000000000	eq
0.0000000000	aspmt
0.0000000000	mvs
0.0000000000	donors
0.0000000000	terminated
0.0000000000	dmd
0.0000000000	domineering
0.0000000000	owa
0.0000000000	smp
0.0000000000	obda
0.0000000000	samu
0.0000000000	moo
0.0000000000	walksat
0.0000000000	aom
0.0000000000	hol4
0.0000000000	npcs
0.0000000000	clingo
0.0000000000	grounder
0.0000000000	kant
0.0000000000	aspic
0.0000000000	cqs
0.0000000000	blame
0.0000000000	syllogistic
0.0000000000	aba
0.0000000000	ross
0.0000000000	serendipity
0.0000000000	sroiq
0.0000000000	gc
0.0000000000	chase
0.0000000000	olympic
0.0000000000	sdds
0.0000000000	autopilot
0.0000000000	sss
0.0000000000	diamond
0.0000000000	skolemization
0.0000000000	bikes
0.0000000000	triangulated
0.0000000000	vt
0.0000000000	endoscopy
0.0000000000	choquet
0.0000000000	entrenchment
0.0000000000	elevator
0.0000000000	equalities
0.0000000000	vns
0.0000000000	sbps
0.0000000000	tabling
0.0000000000	metro
0.0000000000	bargaining
0.0000000000	eigenmaps
0.0000000000	tcn
0.0000000000	cdcl
0.0000000000	airspace
0.0000000000	unsatisfiability
0.0000000000	weightings
0.0000000000	gsm
0.0000000000	pathfinding
0.0000000000	abelian
0.0000000000	profitability
0.0000000000	middleware
0.0000000000	symposium
0.0000000000	territory
0.0000000000	zap
0.0000000000	verifier
0.0000000000	topsis
0.0000000000	petri
0.0000000000	kabs
0.0000000000	braids
0.0000000000	mycin
0.0000000000	detachment
0.0000000000	prospector
0.0000000000	s5
0.0000000000	ptime
0.0000000000	cpn
0.0000000000	refutation
0.0000000000	ifc
0.0000000000	swrl
0.0000000000	disbelief
0.0000000000	spohn
0.0000000000	tbox
0.0000000000	paraconsistent
0.0000000000	agi
0.0000000000	oaei
0.0000000000	sta
0.0000000000	poole
0.0000000000	defenders
0.0000000000	nilsson
0.0000000000	hda
0.0000000000	matte
0.0000000000	qbf
0.0000000000	shiq
0.0000000000	payment
0.0000000000	matchmaking
0.0000000000	bd
0.0000000000	w3c
0.0000000000	ipc
0.0000000000	durative
0.0000000000	pddl
0.0000000000	pddl2.1
0.0000000000	herbrand
0.0000000000	rcc8
0.0000000000	ff
0.0000000000	pathfinder
0.0000000000	sticky
0.0000000000	circumscription
0.0000000000	undecidability
0.0000000000	constructors
0.0000000000	tptp
0.0000000000	graphplan
0.0000000000	cargo
0.0000000000	mknf
0.0000000000	robdd
0.0000000000	bdds
0.0000000000	coalition
0.0000000000	nondeterminism
0.0000000000	bisimulation
0.0000000000	bisimulations
0.0000000000	cots
0.0000000000	enrolled
0.0000000000	programing
0.0000000000	unawareness
0.0000000000	intrusions
0.0000000000	veto
0.0000000000	bribery
0.0000000000	abox
0.0000000000	alldifferent
0.0000000000	symbiotic
0.0000000000	dipole
0.0000000000	continental
0.0000000000	iclp
0.0000000000	propagators
0.0000000000	seam
0.0000000000	milp
0.0000000000	cylindrical
0.0000000000	backdoors
0.0000000000	cnfs
0.0000000000	gac
0.0000000000	conformant
0.0000000000	diagnosability
0.0000000000	zadeh
0.0000000000	exptime
0.0000000000	markerless
0.0000000000	conp
0.0000000000	neutrosophic
0.0000000000	dsmt
0.0000000000	discernment
0.0000000000	elo
0.0000000000	tax
0.0000000000	gelfond
0.0000000000	lifschitz
0.0000000000	savage
0.0000000000	s2
0.0000000000	s1
0.0000000000	delp
0.0000000000	unfounded
0.0000000000	klm
0.0000000000	dung
0.0000000000	kleene
0.0000000000	definable
0.0000000000	infinitary
0.0000000000	darwiche
0.0000000000	promoter
0.0000000000	obdds
0.0000000000	obdd
0.0000000000	dnnf
0.0000000000	bdd
0.0000000000	smodels
0.0000000000	dlv
0.0000000000	lehmann
0.0000000000	axiomatizations
0.0000000000	defeasible
0.0000000000	skeptical
0.0000000000	reiter
0.0000000000	ida
0.0000000000	halpern
0.0000000000	macros
0.0000000000	maxmin
0.0000000000	cbp
0.0000000000	axiomatization
0.0000000000	pocl
0.0000000000	fixpoint
0.0000000000	autoepistemic
0.0000000000	cutset
0.0000000000	determinate
0.0000000000	unsatisfiable
0.0000000000	intensional
0.0000000000	decidable
0.0000000000	gsat
0.0000000000	backtrack
0.0000000000	describable
0.0000000000	tcm
0.0000000000	implicative
0.0000000000	rumors
0.0000000000	compton
0.0000000000	voynich
0.0000000000	ber
0.0000000000	outlets
0.0000000000	flooding
0.0000000000	dom
0.0000000000	trek
0.0000000000	mcs
0.0000000000	articulations
0.0000000000	sgnmt
0.0000000000	pb
0.0000000000	ia
0.0000000000	cce
0.0000000000	ebm
0.0000000000	indonesia
0.0000000000	philosophers
0.0000000000	tyler
0.0000000000	cyberbullying
0.0000000000	cyk
0.0000000000	triviaqa
0.0000000000	muse
0.0000000000	award
0.0000000000	mra
0.0000000000	king
0.0000000000	canadian
0.0000000000	chf
0.0000000000	pku
0.0000000000	rbmt
0.0000000000	indic
0.0000000000	hateful
0.0000000000	conceptualization
0.0000000000	singapore
0.0000000000	replicability
0.0000000000	fin
0.0000000000	producers
0.0000000000	spontaneity
0.0000000000	endangered
0.0000000000	staircase
0.0000000000	utd
0.0000000000	extendable
0.0000000000	wce
0.0000000000	harassment
0.0000000000	racist
0.0000000000	memorable
0.0000000000	devanagari
0.0000000000	disputed
0.0000000000	journalism
0.0000000000	deontic
0.0000000000	contextualization
0.0000000000	gemini
0.0000000000	organizers
0.0000000000	gec
0.0000000000	cooperating
0.0000000000	qe
0.0000000000	cambridge
0.0000000000	ud
0.0000000000	0.76
0.0000000000	monadic
0.0000000000	shooting
0.0000000000	genus
0.0000000000	0.61
0.0000000000	bundles
0.0000000000	keyboard
0.0000000000	evograder
0.0000000000	fictional
0.0000000000	ime
0.0000000000	slt
0.0000000000	germanet
0.0000000000	std
0.0000000000	hyponymy
0.0000000000	rpn
0.0000000000	strives
0.0000000000	etymological
0.0000000000	norwegian
0.0000000000	ug
0.0000000000	ling
0.0000000000	lexis
0.0000000000	polymorphism
0.0000000000	suicidal
0.0000000000	unithood
0.0000000000	gazetteer
0.0000000000	sinhala
0.0000000000	spotlight
0.0000000000	summarizers
0.0000000000	tem
0.0000000000	contention
0.0000000000	lapse
0.0000000000	agenda
0.0000000000	romanian
0.0000000000	rigidity
0.0000000000	galois
0.0000000000	accents
0.0000000000	0.81
0.0000000000	reinflection
0.0000000000	responders
0.0000000000	narrower
0.0000000000	magicoder
0.0000000000	i7
0.0000000000	intermittency
0.0000000000	cognate
0.0000000000	icon
0.0000000000	khmer
0.0000000000	phonetically
0.0000000000	glyphs
0.0000000000	nes
0.0000000000	deaf
0.0000000000	pdl
0.0000000000	reflective
0.0000000000	idempotent
0.0000000000	dfa
0.0000000000	debated
0.0000000000	resolvers
0.0000000000	hypernyms
0.0000000000	turkish
0.0000000000	scholars
0.0000000000	sindhi
0.0000000000	affixes
0.0000000000	chapters
0.0000000000	sbvr
0.0000000000	farsi
0.0000000000	abbreviation
0.0000000000	bible
0.0000000000	argumentative
0.0000000000	tibetan
0.0000000000	microblogs
0.0000000000	dialectal
0.0000000000	msa
0.0000000000	indonesian
0.0000000000	egyptian
0.0000000000	indo
0.0000000000	cac
0.0000000000	ict
0.0000000000	psycho
0.0000000000	g2p
0.0000000000	stemmer
0.0000000000	radicals
0.0000000000	bulgarian
0.0000000000	termhood
0.0000000000	headline
0.0000000000	lf
0.0000000000	eo
0.0000000000	gun
0.0000000000	consonant
0.0000000000	sandhi
0.0000000000	universities
0.0000000000	lmf
0.0000000000	ngram
0.0000000000	diachronic
0.0000000000	checkers
0.0000000000	multiprocessor
0.0000000000	roget
0.0000000000	timeml
0.0000000000	animations
0.0000000000	asl
0.0000000000	myanmar
0.0000000000	fence
0.0000000000	syllabic
0.0000000000	associativity
0.0000000000	intuitionistic
0.0000000000	peculiarities
0.0000000000	grishin
0.0000000000	paradigmatic
0.0000000000	interferences
0.0000000000	rsa
0.0000000000	lexemes
0.0000000000	nooj
0.0000000000	ees
0.0000000000	langue
0.0000000000	writers
0.0000000000	ou
0.0000000000	acronyms
0.0000000000	assamese
0.0000000000	referencing
0.0000000000	sanskrit
0.0000000000	euphonic
0.0000000000	gutenberg
0.0000000000	decipherment
0.0000000000	unl
0.0000000000	tei
0.0000000000	jrc
0.0000000000	terminologies
0.0000000000	duty
0.0000000000	mandelbrot
0.0000000000	argumentation
0.0000000000	inflectional
0.0000000000	checker
0.0000000000	amharic
0.0000000000	zipf
0.0000000000	ukrainian
0.0000000000	organisational
0.0000000000	punjabi
0.0000000000	marathi
0.0000000000	centres
0.0000000000	intelligible
0.0000000000	march
0.0000000000	museum
0.0000000000	umls
0.0000000000	morpho
0.0000000000	brown
0.0000000000	duluth
0.0000000000	readability
0.0000000000	unicode
0.0000000000	thai
0.0000000000	icons
0.0000000000	encyclopedic
0.0000000000	sf
0.0000000000	phonotactic
0.0000000000	collocations
0.0000000000	basque
0.0000000000	tableaux
0.0000000000	lfg
0.0000000000	metonymy
0.0000000000	selectional
0.0000000000	combinator
0.0000000000	tagset
0.0000000000	lexicographical
0.0000000000	malay
0.0000000000	newspaper
0.0000000000	cle
0.0000000000	ppl
0.0000000000	unix
0.0000000000	antecedents
0.0000000000	anaphora
0.0000000000	substantive
0.0000000000	tilt
0.0000000000	boston
0.0000000000	clir
0.0000000000	synset
0.0000000000	dop
0.0000000000	anaphoric
0.0000000000	interlingual
0.0000000000	reduplication
0.0000000000	hebrew
0.0000000000	hpsg
0.0000000000	lemmatizer
0.0000000000	cfg
0.0000000000	cfgs
0.0000000000	derivational
0.0000000000	lexicalization
0.0000000000	xtag
0.0000000000	lexicalized
0.0000000000	bdi
0.0000000000	qs
0.0000000000	debiased
0.0000000000	bet
0.0000000000	csl
0.0000000000	chan
0.0000000000	sdd
0.0000000000	atlases
0.0000000000	mice
0.0000000000	barcodes
0.0000000000	weapon
0.0000000000	vsa
0.0000000000	spacing
0.0000000000	afs
0.0000000000	multiphase
0.0000000000	doors
0.0000000000	chessboard
0.0000000000	consultation
0.0000000000	sobel
0.0000000000	cryptanalysis
0.0000000000	cipher
0.0000000000	sls
0.0000000000	fss
0.0000000000	tubular
0.0000000000	intake
0.0000000000	hypercomplex
0.0000000000	shelves
0.0000000000	domination
0.0000000000	ttp
0.0000000000	satisfiable
0.0000000000	spice
0.0000000000	rram
0.0000000000	volunteer
0.0000000000	wafer
0.0000000000	aspiration
0.0000000000	complexification
0.0000000000	morphable
0.0000000000	biobjective
0.0000000000	sram
0.0000000000	subdivision
0.0000000000	wta
0.0000000000	converter
0.0000000000	ni
0.0000000000	multiplexing
0.0000000000	revisions
0.0000000000	weld
0.0000000000	gls
0.0000000000	mamdani
0.0000000000	eve
0.0000000000	leadership
0.0000000000	leaders
0.0000000000	mcdm
0.0000000000	ahp
0.0000000000	cuckoo
0.0000000000	ruling
0.0000000000	amoeba
0.0000000000	rhythmic
0.0000000000	nano
0.0000000000	nasal
0.0000000000	looped
0.0000000000	sumo
0.0000000000	cro
0.0000000000	hw
0.0000000000	physarum
0.0000000000	br
0.0000000000	province
0.0000000000	electoral
0.0000000000	ucp
0.0000000000	ssa
0.0000000000	ruggedness
0.0000000000	diophantine
0.0000000000	buying
0.0000000000	evt
0.0000000000	iga
0.0000000000	liquids
0.0000000000	tab
0.0000000000	morlet
0.0000000000	moea
0.0000000000	iec
0.0000000000	clubs
0.0000000000	capacitated
0.0000000000	memes
0.0000000000	meme
0.0000000000	currency
0.0000000000	migrating
0.0000000000	authenticate
0.0000000000	dg
0.0000000000	spider
0.0000000000	incompatibility
0.0000000000	moeas
0.0000000000	supplier
0.0000000000	multicriteria
0.0000000000	nrmse
0.0000000000	coastal
0.0000000000	obligation
0.0000000000	manufacturer
0.0000000000	electronics
0.0000000000	employee
0.0000000000	italy
0.0000000000	dwi
0.0000000000	flowchart
0.0000000000	frr
0.0000000000	valve
0.0000000000	bees
0.0000000000	bat
0.0000000000	quaternions
0.0000000000	container
0.0000000000	gep
0.0000000000	makespan
0.0000000000	shop
0.0000000000	africa
0.0000000000	tardiness
0.0000000000	relativity
0.0000000000	turbines
0.0000000000	bbob
0.0000000000	postal
0.0000000000	numeral
0.0000000000	creatures
0.0000000000	vlsi
0.0000000000	millimeter
0.0000000000	elitist
0.0000000000	centuries
0.0000000000	slave
0.0000000000	onemax
0.0000000000	leadingones
0.0000000000	dxnn
0.0000000000	builder
0.0000000000	precedence
0.0000000000	pdptw
0.0000000000	holding
0.0000000000	steam
0.0000000000	illuminant
0.0000000000	specular
0.0000000000	gases
0.0000000000	emo
0.0000000000	annihilation
0.0000000000	mating
0.0000000000	fem
0.0000000000	deflection
0.0000000000	minisat
0.0000000000	bbs
0.0000000000	alife
0.0000000000	epistasis
0.0000000000	despeckling
0.0000000000	polsar
0.0000000000	scenery
0.0000000000	cine
0.0000000000	locus
0.0000000000	forbidden
0.0000000000	qg
0.0000000000	gai
0.0000000000	ch
0.0000000000	pspace
0.0000000000	mrs
0.0000000000	minhash
0.0000000000	mirna
0.0000000000	lorp
0.0000000000	phenomenological
0.0000000000	pfa
0.0000000000	universals
0.0000000000	fuzzing
0.0000000000	endeavors
0.0000000000	disclosure
0.0000000000	sfs
0.0000000000	asi
0.0000000000	george
0.0000000000	filtration
0.0000000000	currents
0.0000000000	holography
0.0000000000	fisheye
0.0000000000	tuberculosis
0.0000000000	fluids
0.0000000000	pancreas
0.0000000000	octree
0.0000000000	hazardous
0.0000000000	fcnn
0.0000000000	truck
0.0000000000	decided
0.0000000000	multisets
0.0000000000	esm
0.0000000000	imagers
0.0000000000	drone
0.0000000000	lenses
0.0000000000	fruits
0.0000000000	photographed
0.0000000000	cornell
0.0000000000	cutout
0.0000000000	struck
0.0000000000	ccd
0.0000000000	resisted
0.0000000000	retouching
0.0000000000	svt
0.0000000000	uavs
0.0000000000	shock
0.0000000000	alerting
0.0000000000	matthews
0.0000000000	nous
0.0000000000	une
0.0000000000	mla
0.0000000000	automatique
0.0000000000	stft
0.0000000000	hajj
0.0000000000	semiconductor
0.0000000000	actuators
0.0000000000	depressive
0.0000000000	hb
0.0000000000	compensated
0.0000000000	gsa
0.0000000000	metastasis
0.0000000000	idss
0.0000000000	misconceptions
0.0000000000	transit
0.0000000000	dro
0.0000000000	dls
0.0000000000	ihs
0.0000000000	lensing
0.0000000000	mobilenet
0.0000000000	avian
0.0000000000	gr
0.0000000000	taobao
0.0000000000	broadband
0.0000000000	supercomputer
0.0000000000	cataract
0.0000000000	proceeding
0.0000000000	borne
0.0000000000	elliptic
0.0000000000	axon
0.0000000000	airport
0.0000000000	frozen
0.0000000000	ctd
0.0000000000	1985
0.0000000000	deaths
0.0000000000	lorenz
0.0000000000	monograph
0.0000000000	ozone
0.0000000000	manga
0.0000000000	passwords
0.0000000000	charged
0.0000000000	cancers
0.0000000000	specimen
0.0000000000	levy
0.0000000000	reshuffling
0.0000000000	resample
0.0000000000	dorsal
0.0000000000	orthogonally
0.0000000000	mathit
0.0000000000	tick
0.0000000000	arduous
0.0000000000	ror
0.0000000000	digraphs
0.0000000000	cds
0.0000000000	smf
0.0000000000	corporate
0.0000000000	retrospectively
0.0000000000	psm
0.0000000000	ngca
0.0000000000	experimentations
0.0000000000	crystal
0.0000000000	saturated
0.0000000000	adherence
0.0000000000	unsigned
0.0000000000	intelligibility
0.0000000000	ccs
0.0000000000	lcp
0.0000000000	widehat
0.0000000000	retraction
0.0000000000	james
0.0000000000	iron
0.0000000000	unambiguously
0.0000000000	colorings
0.0000000000	watson
0.0000000000	ngd
0.0000000000	dic
0.0000000000	discerning
0.0000000000	versioning
0.0000000000	holistically
0.0000000000	habitat
0.0000000000	nmc
0.0000000000	subtracted
0.0000000000	homogenous
0.0000000000	ape
0.0000000000	rankers
0.0000000000	metamodel
0.0000000000	hubs
0.0000000000	adams
0.0000000000	skull
0.0000000000	bold
0.0000000000	carbon
0.0000000000	rcc
0.0000000000	135
0.0000000000	minimises
0.0000000000	posting
0.0000000000	protests
0.0000000000	multifaceted
0.0000000000	metrical
0.0000000000	attracts
0.0000000000	neutrino
0.0000000000	cooperatively
0.0000000000	sla
0.0000000000	lensless
0.0000000000	cryptography
0.0000000000	nodal
0.0000000000	mmf
0.0000000000	sieve
0.0000000000	tof
0.0000000000	microbial
0.0000000000	sharpening
0.0000000000	rfe
0.0000000000	loco
0.0000000000	cos
0.0000000000	fd
0.0000000000	gca
0.0000000000	sync
0.0000000000	wh
0.0000000000	lma
0.0000000000	settle
0.0000000000	contextualizing
0.0000000000	du
0.0000000000	subcategories
0.0000000000	dfw
0.0000000000	centrally
0.0000000000	acoustical
0.0000000000	funding
0.0000000000	congested
0.0000000000	surveyed
0.0000000000	epistemological
0.0000000000	catalogs
0.0000000000	nfl
0.0000000000	aa
0.0000000000	incompletely
0.0000000000	intercept
0.0000000000	impulsive
0.0000000000	les
0.0000000000	bas
0.0000000000	ista
0.0000000000	simplices
0.0000000000	grns
0.0000000000	cpf
0.0000000000	microstructural
0.0000000000	microstructure
0.0000000000	proficient
0.0000000000	settling
0.0000000000	foods
0.0000000000	eating
0.0000000000	atm
0.0000000000	folksonomy
0.0000000000	hamper
0.0000000000	cws
0.0000000000	preselection
0.0000000000	metabolic
0.0000000000	sur
0.0000000000	strands
0.0000000000	nyquist
0.0000000000	dea
0.0000000000	sharpened
0.0000000000	bigr
0.0000000000	bigl
0.0000000000	revenues
0.0000000000	renewal
0.0000000000	siam
0.0000000000	osher
0.0000000000	crp
0.0000000000	medline
0.0000000000	df
0.0000000000	mas
0.0000000000	corr
0.0000000000	agm
0.0000000000	buyers
0.0000000000	contracts
0.0000000000	formant
0.0000000000	constellations
0.0000000000	ridges
0.0000000000	uv
0.0000000000	ecological
0.0000000000	arrow
0.0000000000	3.8
0.0000000000	arabidopsis
0.0000000000	pam
0.0000000000	intracranial
0.0000000000	packed
0.0000000000	subsampled
0.0000000000	agnostically
0.0000000000	shi
0.0000000000	customary
0.0000000000	invariably
0.0000000000	dblp
0.0000000000	demixing
0.0000000000	iva
0.0000000000	monthly
0.0000000000	timelines
0.0000000000	mahnmf
0.0000000000	occasional
0.0000000000	lingam
0.0000000000	wing
0.0000000000	reconciliation
0.0000000000	destroy
0.0000000000	bsbl
0.0000000000	telemedicine
0.0000000000	hausdorff
0.0000000000	loci
0.0000000000	sdps
0.0000000000	spa
0.0000000000	singly
0.0000000000	breeding
0.0000000000	drought
0.0000000000	pmf
0.0000000000	ddi
0.0000000000	lb
0.0000000000	drs
0.0000000000	varphi
0.0000000000	guarded
0.0000000000	whale
0.0000000000	bof
0.0000000000	info
0.0000000000	bpn
0.0000000000	microphones
0.0000000000	equitable
0.0000000000	equitability
0.0000000000	fis
0.0000000000	assortative
0.0000000000	assortativity
0.0000000000	dpf
0.0000000000	proofreading
0.0000000000	mentioning
0.0000000000	dsm
0.0000000000	sharpness
0.0000000000	approachability
0.0000000000	blackwell
0.0000000000	charging
0.0000000000	dollars
0.0000000000	eu
0.0000000000	obligations
0.0000000000	rights
0.0000000000	cas
0.0000000000	rearrangement
0.0000000000	vandalism
0.0000000000	routers
0.0000000000	nids
0.0000000000	persuasion
0.0000000000	triangular
0.0000000000	configuring
0.0000000000	magnet
0.0000000000	closures
0.0000000000	miller
0.0000000000	actuated
0.0000000000	sparked
0.0000000000	cms
0.0000000000	piano
0.0000000000	bars
0.0000000000	composer
0.0000000000	lite
0.0000000000	traversability
0.0000000000	lifecycle
0.0000000000	talent
0.0000000000	koopman
0.0000000000	tampering
0.0000000000	unacceptable
0.0000000000	characterising
0.0000000000	automaton
0.0000000000	dvb
0.0000000000	broadcasting
0.0000000000	superintelligent
0.0000000000	extrapolated
0.0000000000	teammates
0.0000000000	foot
0.0000000000	metering
0.0000000000	truthful
0.0000000000	hunting
0.0000000000	river
0.0000000000	dilemmas
0.0000000000	lg
0.0000000000	dota
0.0000000000	utilitarian
0.0000000000	esports
0.0000000000	factory
0.0000000000	perceives
0.0000000000	scm
0.0000000000	blended
0.0000000000	tier
0.0000000000	mpc
0.0000000000	unforeseen
0.0000000000	casp
0.0000000000	onsets
0.0000000000	decentralised
0.0000000000	dial
0.0000000000	dagger
0.0000000000	repair
0.0000000000	maxent
0.0000000000	lse
0.0000000000	invasion
0.0000000000	bidders
0.0000000000	welfare
0.0000000000	tp
0.0000000000	taker
0.0000000000	portal
0.0000000000	stackelberg
0.0000000000	mega
0.0000000000	cegis
0.0000000000	glance
0.0000000000	econometrics
0.0000000000	voter
0.0000000000	chr
0.0000000000	onboard
0.0000000000	password
0.0000000000	interoperability
0.0000000000	cubical
0.0000000000	hol
0.0000000000	mathematicians
0.0000000000	mrna
0.0000000000	lemmas
0.0000000000	ems
0.0000000000	residential
0.0000000000	dreams
0.0000000000	licence
0.0000000000	itemsets
0.0000000000	tcp
0.0000000000	scouting
0.0000000000	enemy
0.0000000000	reconnaissance
0.0000000000	reception
0.0000000000	montanari
0.0000000000	provers
0.0000000000	coq
0.0000000000	mizar
0.0000000000	prover
0.0000000000	gone
0.0000000000	grf
0.0000000000	lt
0.0000000000	dps
0.0000000000	folksonomies
0.0000000000	syllables
0.0000000000	slg
0.0000000000	celebrities
0.0000000000	politicians
0.0000000000	ddeo
0.0000000000	epll
0.0000000000	supervoxel
0.0000000000	macromolecules
0.0000000000	ect
0.0000000000	fourteen
0.0000000000	forty
0.0000000000	gsr
0.0000000000	pv
0.0000000000	0.70
0.0000000000	0.80
0.0000000000	indeterminate
0.0000000000	consonants
0.0000000000	fdg
0.0000000000	css
0.0000000000	bids
0.0000000000	enzymes
0.0000000000	ambitious
0.0000000000	regresses
0.0000000000	plugin
0.0000000000	defocus
0.0000000000	propagator
0.0000000000	flavor
0.0000000000	grs
0.0000000000	mumford
0.0000000000	bcis
0.0000000000	ssvep
0.0000000000	deforming
0.0000000000	smr
0.0000000000	tenth
0.0000000000	electro
0.0000000000	malik
0.0000000000	establishment
0.0000000000	eigengap
0.0000000000	beamforming
0.0000000000	lexico
0.0000000000	career
0.0000000000	dead
0.0000000000	shield
0.0000000000	cure
0.0000000000	smoke
0.0000000000	september
0.0000000000	tracklets
0.0000000000	abduction
0.0000000000	picasso
0.0000000000	flux
0.0000000000	dcf
0.0000000000	printing
0.0000000000	pathologist
0.0000000000	carcinoma
0.0000000000	wsi
0.0000000000	tennis
0.0000000000	unreal
0.0000000000	her2
0.0000000000	payload
0.0000000000	misalignments
0.0000000000	synchronized
0.0000000000	thirty
0.0000000000	6d
0.0000000000	mav
0.0000000000	obfuscation
0.0000000000	obfuscated
0.0000000000	tube
0.0000000000	experiential
0.0000000000	quiz
0.0000000000	illusions
0.0000000000	prolonged
0.0000000000	obesity
0.0000000000	demon
0.0000000000	ils
0.0000000000	denoting
0.0000000000	island
0.0000000000	hint
0.0000000000	acm
0.0000000000	outlook
0.0000000000	envisaged
0.0000000000	prints
0.0000000000	integrators
0.0000000000	pulsed
0.0000000000	fingertips
0.0000000000	fingertip
0.0000000000	ants
0.0000000000	foe
0.0000000000	friend
0.0000000000	prey
0.0000000000	arity
0.0000000000	embodies
0.0000000000	digraph
0.0000000000	paradox
0.0000000000	favored
0.0000000000	ast
0.0000000000	eventualities
0.0000000000	willingness
0.0000000000	mistakenly
0.0000000000	cord
0.0000000000	categorisation
0.0000000000	pss
0.0000000000	garment
0.0000000000	sci
0.0000000000	virus
0.0000000000	suspect
0.0000000000	bmi
0.0000000000	trauma
0.0000000000	assurances
0.0000000000	sheep
0.0000000000	blockchain
0.0000000000	traceable
0.0000000000	paradoxical
0.0000000000	acronym
0.0000000000	encyclopedia
0.0000000000	epistemology
0.0000000000	playtime
0.0000000000	mln
0.0000000000	mlns
0.0000000000	optics
0.0000000000	athlete
0.0000000000	cosmological
0.0000000000	inpatient
0.0000000000	bare
0.0000000000	forensic
0.0000000000	rugged
0.0000000000	swarming
0.0000000000	lps
0.0000000000	jumping
0.0000000000	ig
0.0000000000	residents
0.0000000000	mcm
0.0000000000	existential
0.0000000000	mog
0.0000000000	lauritzen
0.0000000000	inclusions
0.0000000000	credal
0.0000000000	traders
0.0000000000	decimation
0.0000000000	alan
0.0000000000	fictitious
0.0000000000	pgms
0.0000000000	autonomic
0.0000000000	mirrored
0.0000000000	borda
0.0000000000	permissions
0.0000000000	permission
0.0000000000	iff
0.0000000000	bought
0.0000000000	weakest
0.0000000000	ranged
0.0000000000	realizable
0.0000000000	neutron
0.0000000000	combinational
0.0000000000	japan
0.0000000000	transportability
0.0000000000	disabilities
0.0000000000	enron
0.0000000000	keystroke
0.0000000000	accented
0.0000000000	cavs
0.0000000000	patents
0.0000000000	adjoining
0.0000000000	clickbait
0.0000000000	clickbaits
0.0000000000	fo
0.0000000000	mgb
0.0000000000	idiosyncratic
0.0000000000	moderation
0.0000000000	synonymy
0.0000000000	vec
0.0000000000	controversy
0.0000000000	secrets
0.0000000000	multiplex
0.0000000000	reviewers
0.0000000000	enrollment
0.0000000000	misspellings
0.0000000000	biographical
0.0000000000	laptop
0.0000000000	broadcasts
0.0000000000	weibo
0.0000000000	rumour
0.0000000000	blogging
0.0000000000	rumours
0.0000000000	tempeval
0.0000000000	precious
0.0000000000	authoritative
0.0000000000	accent
0.0000000000	ppi
0.0000000000	bark
0.0000000000	terabyte
0.0000000000	printer
0.0000000000	vsm
0.0000000000	esl
0.0000000000	toefl
0.0000000000	destinations
0.0000000000	410
0.0000000000	browser
0.0000000000	newspapers
0.0000000000	fe
0.0000000000	photographers
0.0000000000	silent
0.0000000000	shots
0.0000000000	foil
0.0000000000	victory
0.0000000000	succession
0.0000000000	creators
0.0000000000	cats
0.0000000000	rent
0.0000000000	instagram
0.0000000000	portrait
0.0000000000	combinatory
0.0000000000	emotionally
0.0000000000	saying
0.0000000000	malayalam
0.0000000000	cepstrum
0.0000000000	dissipative
0.0000000000	coevolutionary
0.0000000000	inclusive
0.0000000000	replicator
0.0000000000	motility
0.0000000000	redescription
0.0000000000	inseparable
0.0000000000	immigration
0.0000000000	polarization
0.0000000000	election
0.0000000000	lexica
0.0000000000	parliament
0.0000000000	parliamentary
0.0000000000	plural
0.0000000000	grammaticality
0.0000000000	declaration
0.0000000000	topically
0.0000000000	congress
0.0000000000	c1
0.0000000000	transliteration
0.0000000000	punctuation
0.0000000000	organisations
0.0000000000	supplies
0.0000000000	premier
0.0000000000	brands
0.0000000000	rural
0.0000000000	lewis
0.0000000000	greek
0.0000000000	hate
0.0000000000	quarter
0.0000000000	gazetteers
0.0000000000	oie
0.0000000000	irregularity
0.0000000000	firms
0.0000000000	neglecting
0.0000000000	plagiarism
0.0000000000	publishers
0.0000000000	campaign
0.0000000000	graphemic
0.0000000000	phonemic
0.0000000000	jitter
0.0000000000	playback
0.0000000000	yellow
0.0000000000	350
0.0000000000	morphosyntactic
0.0000000000	assert
0.0000000000	skos
0.0000000000	clickstream
0.0000000000	extensional
0.0000000000	epidemiological
0.0000000000	chords
0.0000000000	feelings
0.0000000000	launch
0.0000000000	tips
0.0000000000	phonology
0.0000000000	undecidable
0.0000000000	nonmonotonic
0.0000000000	lacked
0.0000000000	acl
0.0000000000	bibliographic
0.0000000000	manifestation
0.0000000000	linguists
0.0000000000	lectures
0.0000000000	nlc
0.0000000000	novels
0.0000000000	install
0.0000000000	drill
0.0000000000	tended
0.0000000000	cleaner
0.0000000000	pct
0.0000000000	dlp
0.0000000000	linux
0.0000000000	lsi
0.0000000000	presentations
0.0000000000	edition
0.0000000000	hex
0.0000000000	siri
0.0000000000	opinionated
0.0000000000	lod
0.0000000000	rdf
0.0000000000	pronouns
0.0000000000	clef
0.0000000000	crawler
0.0000000000	www
0.0000000000	thesaurus
0.0000000000	geotagged
0.0000000000	euclidian
0.0000000000	triangles
0.0000000000	htm
0.0000000000	literary
0.0000000000	owl
0.0000000000	nps
0.0000000000	repaired
0.0000000000	tempo
0.0000000000	snomed
0.0000000000	arousal
0.0000000000	assure
0.0000000000	subtitles
0.0000000000	films
0.0000000000	presume
0.0000000000	speak
0.0000000000	prosody
0.0000000000	antonyms
0.0000000000	prosodic
0.0000000000	interviews
0.0000000000	nonverbal
0.0000000000	abusive
0.0000000000	telecommunications
0.0000000000	humour
0.0000000000	html
0.0000000000	flu
0.0000000000	ellipsis
0.0000000000	ramifications
0.0000000000	leukemia
0.0000000000	messaging
0.0000000000	gpl
0.0000000000	bm25
0.0000000000	interrelationships
0.0000000000	algebras
0.0000000000	amplitudes
0.0000000000	ntcir
0.0000000000	polymorphic
0.0000000000	quantifier
0.0000000000	situate
0.0000000000	tic
0.0000000000	orthography
0.0000000000	determiners
0.0000000000	croatian
0.0000000000	inflected
0.0000000000	lecture
0.0000000000	summarizer
0.0000000000	sadrzadeh
0.0000000000	coecke
0.0000000000	superposed
0.0000000000	jargon
0.0000000000	blogosphere
0.0000000000	hearer
0.0000000000	sentimental
0.0000000000	commutativity
0.0000000000	rhetorical
0.0000000000	asp
0.0000000000	des
0.0000000000	gui
0.0000000000	textbooks
0.0000000000	terminological
0.0000000000	thesauri
0.0000000000	sequent
0.0000000000	lambek
0.0000000000	montague
0.0000000000	combinators
0.0000000000	interchangeable
0.0000000000	tableau
0.0000000000	john
0.0000000000	disruption
0.0000000000	disjunctions
0.0000000000	metacognitive
0.0000000000	kripke
0.0000000000	ctl
0.0000000000	psycholinguistic
0.0000000000	richardson
0.0000000000	stn
0.0000000000	unet
0.0000000000	cta
0.0000000000	hardening
0.0000000000	vehicular
0.0000000000	evade
0.0000000000	substitutes
0.0000000000	consistencies
0.0000000000	foliage
0.0000000000	approximability
0.0000000000	hsp
0.0000000000	homologous
0.0000000000	biodiversity
0.0000000000	sgl
0.0000000000	objectness
0.0000000000	vot2016
0.0000000000	03
0.0000000000	02
0.0000000000	striding
0.0000000000	entertaining
0.0000000000	ment
0.0000000000	matcher
0.0000000000	vault
0.0000000000	suppressed
0.0000000000	dhp
0.0000000000	hm
0.0000000000	fov
0.0000000000	blob
0.0000000000	matting
0.0000000000	randomizing
0.0000000000	t2
0.0000000000	limb
0.0000000000	chrominance
0.0000000000	clutters
0.0000000000	dsod
0.0000000000	decisional
0.0000000000	atr
0.0000000000	drinking
0.0000000000	furniture
0.0000000000	480
0.0000000000	backbones
0.0000000000	specimens
0.0000000000	pgm
0.0000000000	preprocess
0.0000000000	bitwidth
0.0000000000	cvd
0.0000000000	dsc
0.0000000000	contract
0.0000000000	resist
0.0000000000	dans
0.0000000000	minutiae
0.0000000000	observatory
0.0000000000	malignancy
0.0000000000	fea
0.0000000000	radars
0.0000000000	echoes
0.0000000000	avatars
0.0000000000	0.86
0.0000000000	rejecting
0.0000000000	perona
0.0000000000	staining
0.0000000000	ecosystems
0.0000000000	athletes
0.0000000000	cycling
0.0000000000	ghz
0.0000000000	coexistence
0.0000000000	0.2
0.0000000000	ax
0.0000000000	ldl
0.0000000000	eosin
0.0000000000	cxr
0.0000000000	phenomenal
0.0000000000	cohesive
0.0000000000	sellers
0.0000000000	regularly
0.0000000000	crops
0.0000000000	endoscopic
0.0000000000	nbi
0.0000000000	endoscope
0.0000000000	cmc
0.0000000000	contrarily
0.0000000000	biclustering
0.0000000000	torque
0.0000000000	rectangles
0.0000000000	nyudv2
0.0000000000	watershed
0.0000000000	joined
0.0000000000	webly
0.0000000000	animated
0.0000000000	pupil
0.0000000000	gyroscope
0.0000000000	stereoscopic
0.0000000000	hallucination
0.0000000000	dsp
0.0000000000	relay
0.0000000000	interactivity
0.0000000000	tsne
0.0000000000	thumos
0.0000000000	ownership
0.0000000000	dec
0.0000000000	dwt
0.0000000000	openmax
0.0000000000	linearizing
0.0000000000	hollywood2
0.0000000000	155
0.0000000000	equi
0.0000000000	asc
0.0000000000	tb
0.0000000000	inhomogeneity
0.0000000000	tumours
0.0000000000	metastatic
0.0000000000	elms
0.0000000000	flying
0.0000000000	interview
0.0000000000	cpa
0.0000000000	distinctiveness
0.0000000000	qualified
0.0000000000	crc
0.0000000000	lcd
0.0000000000	kannada
0.0000000000	lu
0.0000000000	neat
0.0000000000	tu
0.0000000000	tunnel
0.0000000000	stripes
0.0000000000	slanted
0.0000000000	natures
0.0000000000	stns
0.0000000000	lucas
0.0000000000	nmi
0.0000000000	hollywood
0.0000000000	residing
0.0000000000	staging
0.0000000000	textile
0.0000000000	baby
0.0000000000	vigilance
0.0000000000	hypersphere
0.0000000000	pepper
0.0000000000	d2
0.0000000000	inn
0.0000000000	est
0.0000000000	ohem
0.0000000000	nus
0.0000000000	anova
0.0000000000	calligraphy
0.0000000000	iconic
0.0000000000	brodatz
0.0000000000	mpeg
0.0000000000	sdl
0.0000000000	hardi
0.0000000000	dti
0.0000000000	iccv
0.0000000000	deblur
0.0000000000	scs
0.0000000000	authentic
0.0000000000	lap
0.0000000000	wheel
0.0000000000	substitutions
0.0000000000	europe
0.0000000000	heritage
0.0000000000	colon
0.0000000000	polyp
0.0000000000	colonoscopy
0.0000000000	polyps
0.0000000000	2dpca
0.0000000000	muscles
0.0000000000	panchromatic
0.0000000000	matchers
0.0000000000	inaccessible
0.0000000000	phylogeny
0.0000000000	graduated
0.0000000000	enrichment
0.0000000000	levenshtein
0.0000000000	reactor
0.0000000000	atc
0.0000000000	bug
0.0000000000	neuromodulation
0.0000000000	overflow
0.0000000000	dfp
0.0000000000	olfactory
0.0000000000	isp
0.0000000000	tiles
0.0000000000	infections
0.0000000000	iso
0.0000000000	qnns
0.0000000000	breathing
0.0000000000	ph
0.0000000000	deadline
0.0000000000	undetected
0.0000000000	habits
0.0000000000	dietary
0.0000000000	jet
0.0000000000	fog
0.0000000000	offloading
0.0000000000	compressor
0.0000000000	synchronizing
0.0000000000	0.69
0.0000000000	mps
0.0000000000	membrane
0.0000000000	tops
0.0000000000	configure
0.0000000000	uav
0.0000000000	segan
0.0000000000	flies
0.0000000000	quadrotor
0.0000000000	bandpass
0.0000000000	basal
0.0000000000	ipad
0.0000000000	swift
0.0000000000	multifractal
0.0000000000	presynaptic
0.0000000000	nomination
0.0000000000	singing
0.0000000000	hcci
0.0000000000	maxwell
0.0000000000	restored
0.0000000000	owner
0.0000000000	traceability
0.0000000000	slopes
0.0000000000	op
0.0000000000	mw
0.0000000000	fabricated
0.0000000000	arma
0.0000000000	convolutive
0.0000000000	0.71
0.0000000000	securities
0.0000000000	130
0.0000000000	asynchrony
0.0000000000	admissibility
0.0000000000	backprojection
0.0000000000	cautious
0.0000000000	predator
0.0000000000	pollination
0.0000000000	predators
0.0000000000	multibiometric
0.0000000000	nanoscale
0.0000000000	dendrites
0.0000000000	lcs
0.0000000000	pid
0.0000000000	networking
0.0000000000	wavelength
0.0000000000	wavelengths
0.0000000000	pap
0.0000000000	cervical
0.0000000000	precondition
0.0000000000	fluctuation
0.0000000000	colorectal
0.0000000000	finely
0.0000000000	arima
0.0000000000	defending
0.0000000000	love
0.0000000000	flights
0.0000000000	airlines
0.0000000000	timeline
0.0000000000	tablets
0.0000000000	tablet
0.0000000000	oral
0.0000000000	stagnation
0.0000000000	contracting
0.0000000000	zooming
0.0000000000	bankruptcy
0.0000000000	irradiance
0.0000000000	reinforces
0.0000000000	hexagonal
0.0000000000	lfd
0.0000000000	procrustes
0.0000000000	xx
0.0000000000	diffraction
0.0000000000	completes
0.0000000000	topography
0.0000000000	erosion
0.0000000000	pns
0.0000000000	carrier
0.0000000000	carriers
0.0000000000	commitments
0.0000000000	injects
0.0000000000	walls
0.0000000000	valley
0.0000000000	donor
0.0000000000	remedies
0.0000000000	strata
0.0000000000	detectability
0.0000000000	optional
0.0000000000	roadway
0.0000000000	unfolded
0.0000000000	mca
0.0000000000	subjectively
0.0000000000	defence
0.0000000000	truenorth
0.0000000000	sustain
0.0000000000	filterbank
0.0000000000	mclnn
0.0000000000	clnn
0.0000000000	therapeutic
0.0000000000	squeezing
0.0000000000	conventions
0.0000000000	ic
0.0000000000	bond
0.0000000000	moisture
0.0000000000	barycenter
0.0000000000	dollar
0.0000000000	reinforcing
0.0000000000	unpredictability
0.0000000000	photovoltaic
0.0000000000	integrand
0.0000000000	res
0.0000000000	j48
0.0000000000	polyadic
0.0000000000	polymer
0.0000000000	subpopulation
0.0000000000	categorial
0.0000000000	parallels
0.0000000000	spacecraft
0.0000000000	earthquakes
0.0000000000	dtc
0.0000000000	misuse
0.0000000000	administrators
0.0000000000	wheat
0.0000000000	workstation
0.0000000000	flag
0.0000000000	squeeze
0.0000000000	positivity
0.0000000000	sending
0.0000000000	threaded
0.0000000000	kr
0.0000000000	lcc
0.0000000000	aer
0.0000000000	browse
0.0000000000	bpm
0.0000000000	couplings
0.0000000000	pilco
0.0000000000	bt
0.0000000000	crowdworkers
0.0000000000	bike
0.0000000000	hourly
0.0000000000	gambler
0.0000000000	shakespeare
0.0000000000	ter
0.0000000000	playground
0.0000000000	inspirations
0.0000000000	au
0.0000000000	facs
0.0000000000	aus
0.0000000000	cartesian
0.0000000000	providers
0.0000000000	cn
0.0000000000	discernible
0.0000000000	0.77
0.0000000000	latch
0.0000000000	pharmacy
0.0000000000	recognizability
0.0000000000	personnel
0.0000000000	npc
0.0000000000	eulerian
0.0000000000	labs
0.0000000000	suicide
0.0000000000	commit
0.0000000000	asserted
0.0000000000	excitement
0.0000000000	rotationally
0.0000000000	oa
0.0000000000	vegas
0.0000000000	sold
0.0000000000	coactive
0.0000000000	dopamine
0.0000000000	dlps
0.0000000000	keys
0.0000000000	assists
0.0000000000	wrt
0.0000000000	aversion
0.0000000000	tokenization
0.0000000000	explorative
0.0000000000	radiance
0.0000000000	shortly
0.0000000000	152
0.0000000000	intel
0.0000000000	cdf
0.0000000000	follower
0.0000000000	defender
0.0000000000	recency
0.0000000000	lights
0.0000000000	itemset
0.0000000000	gib
0.0000000000	selfish
0.0000000000	doppler
0.0000000000	anonymization
0.0000000000	microwave
0.0000000000	crossovers
0.0000000000	pba
0.0000000000	sharply
0.0000000000	vert
0.0000000000	blum
0.0000000000	homomorphism
0.0000000000	homomorphisms
0.0000000000	graphon
0.0000000000	rater
0.0000000000	transe
0.0000000000	anticipating
0.0000000000	contributor
0.0000000000	deepest
0.0000000000	ot
0.0000000000	overlay
0.0000000000	undergoes
0.0000000000	kantorovich
0.0000000000	falsification
0.0000000000	prepare
0.0000000000	falsified
0.0000000000	beauty
0.0000000000	subsurface
0.0000000000	jumps
0.0000000000	sgld
0.0000000000	port
0.0000000000	comparability
0.0000000000	certified
0.0000000000	invention
0.0000000000	district
0.0000000000	enumerated
0.0000000000	0.8
0.0000000000	equipment
0.0000000000	spur
0.0000000000	assortment
0.0000000000	orderless
0.0000000000	colloquial
0.0000000000	humidity
0.0000000000	advection
0.0000000000	ij
0.0000000000	predication
0.0000000000	accepting
0.0000000000	proactively
0.0000000000	chemometrics
0.0000000000	mineral
0.0000000000	dtcwt
0.0000000000	scatternet
0.0000000000	manufacturers
0.0000000000	arose
0.0000000000	0.82
0.0000000000	crawl
0.0000000000	nonconvexity
0.0000000000	emoji
0.0000000000	easing
0.0000000000	upgraded
0.0000000000	ld
0.0000000000	crawlers
0.0000000000	crawling
0.0000000000	atps
0.0000000000	stm
0.0000000000	scorer
0.0000000000	unveil
0.0000000000	organisation
0.0000000000	enumerable
0.0000000000	pwls
0.0000000000	sponsored
0.0000000000	cdc
0.0000000000	criticisms
0.0000000000	bpe
0.0000000000	completability
0.0000000000	doc2vec
0.0000000000	schizophrenia
0.0000000000	cran
0.0000000000	vlad
0.0000000000	fid
0.0000000000	goods
0.0000000000	fiction
0.0000000000	sweep
0.0000000000	fractals
0.0000000000	substituted
0.0000000000	det
0.0000000000	hindering
0.0000000000	spelling
0.0000000000	sizable
0.0000000000	leo
0.0000000000	indeterminacy
0.0000000000	administrative
0.0000000000	fnns
0.0000000000	correlative
0.0000000000	imported
0.0000000000	literatures
0.0000000000	encapsulated
0.0000000000	pdfs
0.0000000000	er
0.0000000000	stragglers
0.0000000000	concordance
0.0000000000	graft
0.0000000000	manhattan
0.0000000000	stepsizes
0.0000000000	memorized
0.0000000000	ghost
0.0000000000	unauthorized
0.0000000000	ridesourcing
0.0000000000	renowned
0.0000000000	hogwild
0.0000000000	transitioning
0.0000000000	rw
0.0000000000	restaurants
0.0000000000	rangle
0.0000000000	langle
0.0000000000	oscillator
0.0000000000	mmse
0.0000000000	patternnet
0.0000000000	cec
0.0000000000	combing
0.0000000000	worthwhile
0.0000000000	sdf
0.0000000000	refractory
0.0000000000	suppresses
0.0000000000	collaborating
0.0000000000	socio
0.0000000000	bm3d
0.0000000000	akaike
0.0000000000	prioritizing
0.0000000000	methylation
0.0000000000	embrace
0.0000000000	polyak
0.0000000000	narx
0.0000000000	2k
0.0000000000	detailing
0.0000000000	sector
0.0000000000	passengers
0.0000000000	confounded
0.0000000000	tsc
0.0000000000	terrorism
0.0000000000	violent
0.0000000000	biologists
0.0000000000	wildlife
0.0000000000	landau
0.0000000000	landing
0.0000000000	bpnn
0.0000000000	clicked
0.0000000000	hypergraphs
0.0000000000	subscription
0.0000000000	boldsymbol
0.0000000000	damped
0.0000000000	pcr
0.0000000000	scp
0.0000000000	anonymous
0.0000000000	aggression
0.0000000000	cmab
0.0000000000	encryption
0.0000000000	homomorphic
0.0000000000	clue
0.0000000000	iht
0.0000000000	cleaned
0.0000000000	gcforest
0.0000000000	var
0.0000000000	yeast
0.0000000000	diameter
0.0000000000	applicants
0.0000000000	ipm
0.0000000000	venues
0.0000000000	rakhlin
0.0000000000	fraudulent
0.0000000000	ope
0.0000000000	premises
0.0000000000	bundle
0.0000000000	precomputed
0.0000000000	crack
0.0000000000	flipped
0.0000000000	halfspace
0.0000000000	fano
0.0000000000	marketplace
0.0000000000	chatbots
0.0000000000	hosts
0.0000000000	phishing
0.0000000000	encrypted
0.0000000000	winter
0.0000000000	lssvm
0.0000000000	pancreatic
0.0000000000	peculiar
0.0000000000	beneath
0.0000000000	unordered
0.0000000000	respected
0.0000000000	decomposability
0.0000000000	adjustments
0.0000000000	patching
0.0000000000	noising
0.0000000000	spinal
0.0000000000	tda
0.0000000000	rice
0.0000000000	mbox
0.0000000000	asd
0.0000000000	cvae
0.0000000000	sq
0.0000000000	immensely
0.0000000000	unidentified
0.0000000000	needle
0.0000000000	seq
0.0000000000	nonstandard
0.0000000000	surgeons
0.0000000000	ggm
0.0000000000	seasonality
0.0000000000	wifi
0.0000000000	rumor
0.0000000000	kinetic
0.0000000000	minkowski
0.0000000000	sol
0.0000000000	criminal
0.0000000000	neutrality
0.0000000000	hiring
0.0000000000	consumed
0.0000000000	dykstra
0.0000000000	orthant
0.0000000000	qmi
0.0000000000	hsic
0.0000000000	ods
0.0000000000	stiefel
0.0000000000	monetary
0.0000000000	alterations
0.0000000000	india
0.0000000000	discomfort
0.0000000000	lifestyle
0.0000000000	customizing
0.0000000000	confidential
0.0000000000	emails
0.0000000000	peptide
0.0000000000	legacy
0.0000000000	linearize
0.0000000000	marketplaces
0.0000000000	sales
0.0000000000	coal
0.0000000000	partitional
0.0000000000	bandlimited
0.0000000000	thinning
0.0000000000	orthonormal
0.0000000000	kurtosis
0.0000000000	maximise
0.0000000000	minimised
0.0000000000	exponent
0.0000000000	genericity
0.0000000000	snp
0.0000000000	fs
0.0000000000	rip
0.0000000000	gwas
0.0000000000	rp
0.0000000000	spectroscopic
0.0000000000	untapped
0.0000000000	1986
0.0000000000	pot
0.0000000000	zebrafish
0.0000000000	nr
0.0000000000	maneuvers
0.0000000000	basket
0.0000000000	increment
0.0000000000	readmission
0.0000000000	preterm
0.0000000000	dendrograms
0.0000000000	mv
0.0000000000	abide
0.0000000000	listing
0.0000000000	electrocardiogram
0.0000000000	respiration
0.0000000000	smoking
0.0000000000	arrhythmias
0.0000000000	nbnn
0.0000000000	feldman
0.0000000000	seasonal
0.0000000000	supermarket
0.0000000000	thick
0.0000000000	mes
0.0000000000	connectomes
0.0000000000	hyperedges
0.0000000000	agricultural
0.0000000000	melody
0.0000000000	lags
0.0000000000	hiding
0.0000000000	trending
0.0000000000	ellipsoids
0.0000000000	preferential
0.0000000000	carving
0.0000000000	acdc
0.0000000000	rfs
0.0000000000	psgd
0.0000000000	eyeglasses
0.0000000000	infogan
0.0000000000	concentrations
0.0000000000	bpp
0.0000000000	elite
0.0000000000	spca
0.0000000000	berry
0.0000000000	hereby
0.0000000000	alcohol
0.0000000000	fir
0.0000000000	scad
0.0000000000	dpvi
0.0000000000	repulsion
0.0000000000	fol
0.0000000000	changepoints
0.0000000000	pu
0.0000000000	tailoring
0.0000000000	parametrisation
0.0000000000	diminished
0.0000000000	violence
0.0000000000	gang
0.0000000000	rachford
0.0000000000	douglas
0.0000000000	fista
0.0000000000	mtd
0.0000000000	snps
0.0000000000	polymorphisms
0.0000000000	strand
0.0000000000	wake
0.0000000000	psychiatric
0.0000000000	binning
0.0000000000	kmeans
0.0000000000	tails
0.0000000000	biopsies
0.0000000000	hcc
0.0000000000	bartlett
0.0000000000	speedy
0.0000000000	rigidly
0.0000000000	colt
0.0000000000	cmr
0.0000000000	sparfa
0.0000000000	blurs
0.0000000000	subtype
0.0000000000	spammer
0.0000000000	spots
0.0000000000	postings
0.0000000000	authenticity
0.0000000000	mape
0.0000000000	letting
0.0000000000	seismic
0.0000000000	adaptiveness
0.0000000000	repetitions
0.0000000000	singularities
0.0000000000	ctbn
0.0000000000	ancillary
0.0000000000	intonation
0.0000000000	tfidf
0.0000000000	diverge
0.0000000000	csa
0.0000000000	hyperlinks
0.0000000000	lle
0.0000000000	adm
0.0000000000	listwise
0.0000000000	unpleasant
0.0000000000	flips
0.0000000000	ent
0.0000000000	lpm
0.0000000000	probit
0.0000000000	surveying
0.0000000000	throw
0.0000000000	gpc
0.0000000000	polytopes
0.0000000000	bma
0.0000000000	intact
0.0000000000	afforded
0.0000000000	pg
0.0000000000	stably
0.0000000000	outbreak
0.0000000000	rca
0.0000000000	ppca
0.0000000000	phylogenetic
0.0000000000	inverses
0.0000000000	sparsifying
0.0000000000	manages
0.0000000000	ag
0.0000000000	probing
0.0000000000	stc
0.0000000000	divisible
0.0000000000	blockmodels
0.0000000000	households
0.0000000000	bisection
0.0000000000	warmuth
0.0000000000	ferns
0.0000000000	compressibility
0.0000000000	cramer
0.0000000000	recycling
0.0000000000	condorcet
0.0000000000	parsimony
0.0000000000	gb
0.0000000000	hitting
0.0000000000	mlr
0.0000000000	supermodular
0.0000000000	clarified
0.0000000000	ruled
0.0000000000	fastica
0.0000000000	arl
0.0000000000	holidays
0.0000000000	greed
0.0000000000	regulating
0.0000000000	oasis
0.0000000000	cap
0.0000000000	subgaussian
0.0000000000	rboosting
0.0000000000	signed
0.0000000000	dart
0.0000000000	icd
0.0000000000	tt
0.0000000000	multiplayer
0.0000000000	ksc
0.0000000000	monotonous
0.0000000000	forecasters
0.0000000000	submatrices
0.0000000000	spiked
0.0000000000	concordant
0.0000000000	basing
0.0000000000	confidences
0.0000000000	ta
0.0000000000	electromyography
0.0000000000	maximizer
0.0000000000	wirtinger
0.0000000000	accommodating
0.0000000000	july
0.0000000000	proceedings
0.0000000000	concatenate
0.0000000000	ob
0.0000000000	meteorological
0.0000000000	western
0.0000000000	australia
0.0000000000	stations
0.0000000000	rain
0.0000000000	forecasted
0.0000000000	ne
0.0000000000	dlr
0.0000000000	exchangeability
0.0000000000	reid
0.0000000000	borel
0.0000000000	mann
0.0000000000	cholesky
0.0000000000	confounder
0.0000000000	indegree
0.0000000000	focussing
0.0000000000	disturbance
0.0000000000	distributionally
0.0000000000	ofdm
0.0000000000	cardinal
0.0000000000	eliciting
0.0000000000	anchors
0.0000000000	1988
0.0000000000	anchoring
0.0000000000	dantzig
0.0000000000	bulk
0.0000000000	dso
0.0000000000	multiway
0.0000000000	mixability
0.0000000000	mondrian
0.0000000000	prop
0.0000000000	pes
0.0000000000	wiener
0.0000000000	pollution
0.0000000000	multivariable
0.0000000000	nade
0.0000000000	subtree
0.0000000000	ncrp
0.0000000000	ri
0.0000000000	kingdom
0.0000000000	ralp
0.0000000000	legendre
0.0000000000	backs
0.0000000000	evaluator
0.0000000000	2500
0.0000000000	lo
0.0000000000	picked
0.0000000000	disposal
0.0000000000	bop
0.0000000000	proximities
0.0000000000	nmr
0.0000000000	concluding
0.0000000000	requested
0.0000000000	arrivals
0.0000000000	pays
0.0000000000	shrinks
0.0000000000	exchanges
0.0000000000	mixes
0.0000000000	terminates
0.0000000000	rsi
0.0000000000	quartet
0.0000000000	occupied
0.0000000000	ate
0.0000000000	pe
0.0000000000	subgroup
0.0000000000	blockmodel
0.0000000000	subsample
0.0000000000	bart
0.0000000000	partite
0.0000000000	wrongly
0.0000000000	mh
0.0000000000	ibp
0.0000000000	sobolev
0.0000000000	hellinger
0.0000000000	accelerations
0.0000000000	unbiasedness
0.0000000000	brevity
0.0000000000	neyman
0.0000000000	rvm
0.0000000000	coincide
0.0000000000	distributes
0.0000000000	mcdiarmid
0.0000000000	byproduct
0.0000000000	geiger
0.0000000000	staged
0.0000000000	terminate
0.0000000000	allocations
0.0000000000	heterogenous
0.0000000000	cop
0.0000000000	bracket
0.0000000000	copulas
0.0000000000	spectroscopy
0.0000000000	variabilities
0.0000000000	reciprocity
0.0000000000	ltl
0.0000000000	mnl
0.0000000000	logit
0.0000000000	nc
0.0000000000	deteriorates
0.0000000000	inc
0.0000000000	minus
0.0000000000	homoscedastic
0.0000000000	parzen
0.0000000000	disclose
0.0000000000	eca
0.0000000000	m3
0.0000000000	finitely
0.0000000000	eps
0.0000000000	tightest
0.0000000000	elucidated
0.0000000000	rayleigh
0.0000000000	envelopes
0.0000000000	meg
0.0000000000	fic
0.0000000000	ess
0.0000000000	gaussianity
0.0000000000	asymmetries
0.0000000000	pt
0.0000000000	herding
0.0000000000	privately
0.0000000000	laid
0.0000000000	opponent
0.0000000000	lmnn
0.0000000000	undertaken
0.0000000000	contiguity
0.0000000000	gl
0.0000000000	prognosis
0.0000000000	conic
0.0000000000	martingales
0.0000000000	mail
0.0000000000	sbl
0.0000000000	mmv
0.0000000000	poker
0.0000000000	polygons
0.0000000000	intersecting
0.0000000000	replications
0.0000000000	vovk
0.0000000000	dw
0.0000000000	assembling
0.0000000000	odm
0.0000000000	soc
0.0000000000	xilinx
0.0000000000	bing
0.0000000000	demanded
0.0000000000	entanglement
0.0000000000	ide
0.0000000000	lbg
0.0000000000	vq
0.0000000000	blast
0.0000000000	phantom
0.0000000000	unrolling
0.0000000000	containers
0.0000000000	penetrating
0.0000000000	multiples
0.0000000000	multicore
0.0000000000	sugeno
0.0000000000	ambiguously
0.0000000000	limbs
0.0000000000	dissipation
0.0000000000	stained
0.0000000000	mastered
0.0000000000	fv
0.0000000000	conclusively
0.0000000000	quasar
0.0000000000	relocalisation
0.0000000000	basins
0.0000000000	attractors
0.0000000000	indoors
0.0000000000	oscillatory
0.0000000000	unfavorable
0.0000000000	oscillators
0.0000000000	ringing
0.0000000000	conception
0.0000000000	greyscale
0.0000000000	wrist
0.0000000000	coder
0.0000000000	reflections
0.0000000000	quaternion
0.0000000000	riemann
0.0000000000	conformal
0.0000000000	dictates
0.0000000000	satisficing
0.0000000000	mags
0.0000000000	fostering
0.0000000000	recasts
0.0000000000	night
0.0000000000	december
0.0000000000	rarity
0.0000000000	alert
0.0000000000	utilisation
0.0000000000	inspect
0.0000000000	programme
0.0000000000	recombined
0.0000000000	obeying
0.0000000000	navigates
0.0000000000	affords
0.0000000000	houses
0.0000000000	presently
0.0000000000	france
0.0000000000	polyhedron
0.0000000000	understudied
0.0000000000	pickup
0.0000000000	supervisor
0.0000000000	sepsis
0.0000000000	questionnaires
0.0000000000	questionnaire
0.0000000000	pathwise
0.0000000000	esn
0.0000000000	puzzling
0.0000000000	mechanistic
0.0000000000	cons
0.0000000000	pros
0.0000000000	reputation
0.0000000000	sdca
0.0000000000	ht
0.0000000000	followers
0.0000000000	preset
0.0000000000	fsl
0.0000000000	gssl
0.0000000000	exemplary
0.0000000000	graphlet
0.0000000000	thrust
0.0000000000	openml
0.0000000000	idioms
0.0000000000	por
0.0000000000	desktop
0.0000000000	lanes
0.0000000000	d.c
0.0000000000	washington
0.0000000000	escaping
0.0000000000	del
0.0000000000	son
0.0000000000	para
0.0000000000	que
0.0000000000	martin
0.0000000000	characterised
0.0000000000	interfering
0.0000000000	gail
0.0000000000	rail
0.0000000000	quicker
0.0000000000	ins
0.0000000000	thalamus
0.0000000000	mlc
0.0000000000	curricula
0.0000000000	cinema
0.0000000000	crimes
0.0000000000	trafficking
0.0000000000	doubt
0.0000000000	wins
0.0000000000	lowers
0.0000000000	reasoners
0.0000000000	artist
0.0000000000	taste
0.0000000000	pensemble
0.0000000000	hrl
0.0000000000	bounce
0.0000000000	spending
0.0000000000	etd
0.0000000000	catch
0.0000000000	mhealth
0.0000000000	button
0.0000000000	bang
0.0000000000	destructive
0.0000000000	sas
0.0000000000	soap
0.0000000000	parsed
0.0000000000	monomials
0.0000000000	raining
0.0000000000	realtime
0.0000000000	spacetime
0.0000000000	renyi
0.0000000000	replanning
0.0000000000	monitors
0.0000000000	runtimes
0.0000000000	appreciated
0.0000000000	prefers
0.0000000000	scopes
0.0000000000	entertainment
0.0000000000	actionability
0.0000000000	war
0.0000000000	unusable
0.0000000000	geolocation
0.0000000000	fight
0.0000000000	smarter
0.0000000000	breiman
0.0000000000	beijing
0.0000000000	entailing
0.0000000000	battle
0.0000000000	prognostics
0.0000000000	initiates
0.0000000000	multidisciplinary
0.0000000000	automotive
0.0000000000	unintended
0.0000000000	leaderboard
0.0000000000	recruitment
0.0000000000	risky
0.0000000000	communicative
0.0000000000	purposeful
0.0000000000	inspections
0.0000000000	theft
0.0000000000	electricity
0.0000000000	ntl
0.0000000000	pressures
0.0000000000	viral
0.0000000000	suppes
0.0000000000	incomparable
0.0000000000	secured
0.0000000000	mpe
0.0000000000	domestic
0.0000000000	monomial
0.0000000000	panorama
0.0000000000	wedge
0.0000000000	catching
0.0000000000	rewriting
0.0000000000	golden
0.0000000000	proto
0.0000000000	january
0.0000000000	5000
0.0000000000	cnf
0.0000000000	spammers
0.0000000000	pdp
0.0000000000	relief
0.0000000000	influenza
0.0000000000	backed
0.0000000000	emg
0.0000000000	agg
0.0000000000	rcm
0.0000000000	flavors
0.0000000000	incomputable
0.0000000000	computability
0.0000000000	emphatic
0.0000000000	medoid
0.0000000000	collector
0.0000000000	proxies
0.0000000000	plentiful
0.0000000000	adl
0.0000000000	mar
0.0000000000	textbook
0.0000000000	gleaned
0.0000000000	surely
0.0000000000	superfluous
0.0000000000	vagueness
0.0000000000	crises
0.0000000000	wasted
0.0000000000	saves
0.0000000000	maneuver
0.0000000000	occ
0.0000000000	tplp
0.0000000000	datalog
0.0000000000	textsc
0.0000000000	clausal
0.0000000000	alc
0.0000000000	committing
0.0000000000	coordinator
0.0000000000	dnf
0.0000000000	goedel
0.0000000000	baum
0.0000000000	predecessor
0.0000000000	unsolvable
0.0000000000	revise
0.0000000000	app
0.0000000000	cortana
0.0000000000	competencies
0.0000000000	draft
0.0000000000	withdrawn
0.0000000000	offensive
0.0000000000	integrator
0.0000000000	mre
0.0000000000	strikes
0.0000000000	accident
0.0000000000	brazil
0.0000000000	embody
0.0000000000	complicate
0.0000000000	additions
0.0000000000	hyperedge
0.0000000000	prescriptive
0.0000000000	texas
0.0000000000	west
0.0000000000	finder
0.0000000000	emd
0.0000000000	enterprises
0.0000000000	compliance
0.0000000000	gmrf
0.0000000000	traversed
0.0000000000	stops
0.0000000000	ctbns
0.0000000000	gtd
0.0000000000	deliberation
0.0000000000	switches
0.0000000000	miml
0.0000000000	recalling
0.0000000000	irrelevance
0.0000000000	tion
0.0000000000	request
0.0000000000	gameplay
0.0000000000	promotion
0.0000000000	proxtone
0.0000000000	dissemination
0.0000000000	finest
0.0000000000	logics
0.0000000000	irt
0.0000000000	li
0.0000000000	pc
0.0000000000	lsm
0.0000000000	clause
0.0000000000	metareasoning
0.0000000000	pulls
0.0000000000	gbp
0.0000000000	convexified
0.0000000000	barcelona
0.0000000000	powerplay
0.0000000000	unemployment
0.0000000000	scc
0.0000000000	fdr
0.0000000000	borrow
0.0000000000	mic
0.0000000000	rr
0.0000000000	suspected
0.0000000000	incentive
0.0000000000	hedging
0.0000000000	dss
0.0000000000	hugin
0.0000000000	shenoy
0.0000000000	clifford
0.0000000000	reconsider
0.0000000000	qmr
0.0000000000	bicycle
0.0000000000	ride
0.0000000000	kearns
0.0000000000	po
0.0000000000	polytrees
0.0000000000	imprecise
0.0000000000	additivity
0.0000000000	subpopulations
0.0000000000	consequent
0.0000000000	spectrometry
0.0000000000	redefine
0.0000000000	csp
0.0000000000	aiding
0.0000000000	cartographic
0.0000000000	pull
0.0000000000	controllability
0.0000000000	clonal
0.0000000000	replays
0.0000000000	tech
0.0000000000	unobtrusive
0.0000000000	interfacing
0.0000000000	atp
0.0000000000	dispute
0.0000000000	mediation
0.0000000000	cbr
0.0000000000	ahc
0.0000000000	rls
0.0000000000	fun
0.0000000000	freund
0.0000000000	mauc
0.0000000000	algebraically
0.0000000000	subgradients
0.0000000000	regrets
0.0000000000	manuscripts
0.0000000000	preconditioner
0.0000000000	boundedness
0.0000000000	issued
0.0000000000	multicomponent
0.0000000000	david
0.0000000000	cryptographic
0.0000000000	levin
0.0000000000	separator
0.0000000000	truths
0.0000000000	singularity
0.0000000000	kernelization
0.0000000000	smo
0.0000000000	sophistication
0.0000000000	formalised
0.0000000000	undiscounted
0.0000000000	residues
0.0000000000	acids
0.0000000000	viruses
0.0000000000	rev
0.0000000000	gambling
0.0000000000	dts
0.0000000000	leader
0.0000000000	lq
0.0000000000	icmaus
0.0000000000	fading
0.0000000000	solomonoff
0.0000000000	resize
0.0000000000	hourglass
0.0000000000	kidneys
0.0000000000	renal
0.0000000000	ucl
0.0000000000	delineated
0.0000000000	chromaticity
0.0000000000	hsv
0.0000000000	hue
0.0000000000	700
0.0000000000	badly
0.0000000000	mosaics
0.0000000000	mosaic
0.0000000000	flash
0.0000000000	checked
0.0000000000	180
0.0000000000	lddmm
0.0000000000	diffeomorphic
0.0000000000	diffeomorphisms
0.0000000000	coping
0.0000000000	fractures
0.0000000000	thoracic
0.0000000000	rns
0.0000000000	cts
0.0000000000	illuminated
0.0000000000	facenet
0.0000000000	enforcement
0.0000000000	registers
0.0000000000	vendor
0.0000000000	substance
0.0000000000	reconfiguration
0.0000000000	0.87
0.0000000000	reversibility
0.0000000000	ao
0.0000000000	ra
0.0000000000	odes
0.0000000000	myocardium
0.0000000000	chambers
0.0000000000	vegetation
0.0000000000	taxonomic
0.0000000000	240
0.0000000000	crossings
0.0000000000	icc
0.0000000000	lv
0.0000000000	nu
0.0000000000	vm
0.0000000000	ventricular
0.0000000000	sv
0.0000000000	braking
0.0000000000	aes
0.0000000000	jaffe
0.0000000000	steerable
0.0000000000	viola
0.0000000000	decorrelation
0.0000000000	residue
0.0000000000	fragmentation
0.0000000000	bimodal
0.0000000000	resized
0.0000000000	imbalances
0.0000000000	customization
0.0000000000	nerve
0.0000000000	irreversible
0.0000000000	blindness
0.0000000000	glaucoma
0.0000000000	pcp
0.0000000000	endmembers
0.0000000000	obstructive
0.0000000000	copd
0.0000000000	gi
0.0000000000	rss
0.0000000000	timeliness
0.0000000000	multipath
0.0000000000	sinusoidal
0.0000000000	shadowing
0.0000000000	fetal
0.0000000000	avatar
0.0000000000	ensured
0.0000000000	fuzziness
0.0000000000	possibilistic
0.0000000000	pcm
0.0000000000	perimeter
0.0000000000	sectional
0.0000000000	upscaling
0.0000000000	traced
0.0000000000	lsr
0.0000000000	speckle
0.0000000000	nuclei
0.0000000000	nucleus
0.0000000000	demosaicing
0.0000000000	pdm
0.0000000000	ssm
0.0000000000	preoperative
0.0000000000	operative
0.0000000000	svr
0.0000000000	invertibility
0.0000000000	computerized
0.0000000000	curvilinear
0.0000000000	biopsy
0.0000000000	earliest
0.0000000000	compressions
0.0000000000	melanoma
0.0000000000	kinship
0.0000000000	phd
0.0000000000	manufacturing
0.0000000000	ellipse
0.0000000000	tactics
0.0000000000	streamline
0.0000000000	tractography
0.0000000000	dmri
0.0000000000	walsh
0.0000000000	dft
0.0000000000	cfs
0.0000000000	estate
0.0000000000	fig
0.0000000000	entrance
0.0000000000	overlook
0.0000000000	cctv
0.0000000000	ethnic
0.0000000000	colours
0.0000000000	sand
0.0000000000	foggy
0.0000000000	plsa
0.0000000000	blocking
0.0000000000	fronts
0.0000000000	tropical
0.0000000000	eth
0.0000000000	spd
0.0000000000	someone
0.0000000000	gpds
0.0000000000	micrographs
0.0000000000	coincidence
0.0000000000	forgeries
0.0000000000	football
0.0000000000	medians
0.0000000000	nlm
0.0000000000	multilevel
0.0000000000	sacrifice
0.0000000000	aperture
0.0000000000	rejects
0.0000000000	sar
0.0000000000	polarimetric
0.0000000000	flats
0.0000000000	interdependence
0.0000000000	codewords
0.0000000000	izhikevich
0.0000000000	thermodynamic
0.0000000000	polychronous
0.0000000000	shine
0.0000000000	relativistic
0.0000000000	instantiating
0.0000000000	ensuing
0.0000000000	ecog
0.0000000000	liquid
0.0000000000	worm
0.0000000000	extant
0.0000000000	calcium
0.0000000000	ion
0.0000000000	elegans
0.0000000000	simulink
0.0000000000	hep
0.0000000000	valiant
0.0000000000	postsynaptic
0.0000000000	mds
0.0000000000	biophysical
0.0000000000	merit
0.0000000000	aps
0.0000000000	astrophysical
0.0000000000	understands
0.0000000000	foster
0.0000000000	macroscopic
0.0000000000	tricky
0.0000000000	cyclist
0.0000000000	mi
0.0000000000	investments
0.0000000000	roadside
0.0000000000	fer
0.0000000000	grass
0.0000000000	cubes
0.0000000000	pbp
0.0000000000	pointnet
0.0000000000	unorganized
0.0000000000	nms
0.0000000000	hsis
0.0000000000	symmetrical
0.0000000000	displaying
0.0000000000	thumos14
0.0000000000	untrimmed
0.0000000000	264
0.0000000000	streamed
0.0000000000	covert
0.0000000000	wires
0.0000000000	cone
0.0000000000	spine
0.0000000000	denotes
0.0000000000	registrations
0.0000000000	fibrillation
0.0000000000	atrial
0.0000000000	heartbeat
0.0000000000	arrhythmia
0.0000000000	relocalization
0.0000000000	stain
0.0000000000	brnn
0.0000000000	calculi
0.0000000000	qsr
0.0000000000	slicing
0.0000000000	notwithstanding
0.0000000000	apr
0.0000000000	invisible
0.0000000000	fluents
0.0000000000	aog
0.0000000000	vmf
0.0000000000	crossing
0.0000000000	census
0.0000000000	county
0.0000000000	circ
0.0000000000	usa
0.0000000000	evacuation
0.0000000000	containment
0.0000000000	infectious
0.0000000000	volterra
0.0000000000	bts
0.0000000000	vulnerabilities
0.0000000000	interconnection
0.0000000000	ignorance
0.0000000000	erasing
0.0000000000	inria
0.0000000000	ssim
0.0000000000	blobs
0.0000000000	clearing
0.0000000000	100x
0.0000000000	rolling
0.0000000000	segmenter
0.0000000000	localised
0.0000000000	mandatory
0.0000000000	priorities
0.0000000000	airports
0.0000000000	collaboratively
0.0000000000	depiction
0.0000000000	freehand
0.0000000000	msi
0.0000000000	expecting
0.0000000000	38
0.0000000000	validations
0.0000000000	fallen
0.0000000000	saccades
0.0000000000	unconscious
0.0000000000	receptor
0.0000000000	bears
0.0000000000	resizing
0.0000000000	puzzles
0.0000000000	riddles
0.0000000000	invoke
0.0000000000	mcda
0.0000000000	resemblance
0.0000000000	sketched
0.0000000000	delivery
0.0000000000	horizontal
0.0000000000	parametrised
0.0000000000	vascular
0.0000000000	ks
0.0000000000	fiducial
0.0000000000	deliberate
0.0000000000	felt
0.0000000000	celebrity
0.0000000000	specificities
0.0000000000	dfs
0.0000000000	densest
0.0000000000	100k
0.0000000000	servers
0.0000000000	tum
0.0000000000	casia
0.0000000000	feeds
0.0000000000	authorities
0.0000000000	marine
0.0000000000	workflow
0.0000000000	pmp
0.0000000000	proteomics
0.0000000000	histological
0.0000000000	reconfigured
0.0000000000	lamp
0.0000000000	apparatus
0.0000000000	isbi
0.0000000000	sw
0.0000000000	opencl
0.0000000000	qpso
0.0000000000	synergetic
0.0000000000	deg
0.0000000000	cognitively
0.0000000000	09
0.0000000000	spreading
0.0000000000	lifelogging
0.0000000000	delineating
0.0000000000	columbia
0.0000000000	hough
0.0000000000	sides
0.0000000000	pawlak
0.0000000000	multitemporal
0.0000000000	counted
0.0000000000	weighing
0.0000000000	grocery
0.0000000000	coin
0.0000000000	coins
0.0000000000	concluded
0.0000000000	weaken
0.0000000000	polytope
0.0000000000	gt
0.0000000000	pf
0.0000000000	sir
0.0000000000	cue
0.0000000000	stylization
0.0000000000	icp
0.0000000000	sentinel
0.0000000000	deficient
0.0000000000	uncommon
0.0000000000	valleys
0.0000000000	heights
0.0000000000	rejected
0.0000000000	harris
0.0000000000	ss
0.0000000000	unveiling
0.0000000000	hu
0.0000000000	installation
0.0000000000	shadows
0.0000000000	freeway
0.0000000000	rudimentary
0.0000000000	recourse
0.0000000000	anfis
0.0000000000	veins
0.0000000000	imprecision
0.0000000000	vein
0.0000000000	preprocessed
0.0000000000	alphabetic
0.0000000000	bengali
0.0000000000	ink
0.0000000000	strokes
0.0000000000	gloss
0.0000000000	subgroups
0.0000000000	disjunctive
0.0000000000	constancy
0.0000000000	objectively
0.0000000000	commission
0.0000000000	omission
0.0000000000	corners
0.0000000000	bovw
0.0000000000	alphabets
0.0000000000	fibers
0.0000000000	increments
0.0000000000	parasites
0.0000000000	hc
0.0000000000	ibmap
0.0000000000	milder
0.0000000000	undoubtedly
0.0000000000	0.93
0.0000000000	ventilation
0.0000000000	eit
0.0000000000	impedance
0.0000000000	shachter
0.0000000000	condensation
0.0000000000	favourable
0.0000000000	adjuncts
0.0000000000	modifiers
0.0000000000	adjectival
0.0000000000	whom
0.0000000000	laplacians
0.0000000000	participant
0.0000000000	tan
0.0000000000	upload
0.0000000000	clicking
0.0000000000	mouse
0.0000000000	diff
0.0000000000	lips
0.0000000000	brightness
0.0000000000	inaccuracy
0.0000000000	dem
0.0000000000	dtm
0.0000000000	elevation
0.0000000000	correspondent
0.0000000000	ho
0.0000000000	fg
0.0000000000	devnagari
0.0000000000	fingerprint
0.0000000000	caricature
0.0000000000	keypoints
0.0000000000	orl
0.0000000000	inconvenient
0.0000000000	missions
0.0000000000	supplying
0.0000000000	telecommunication
0.0000000000	corporation
0.0000000000	swedish
0.0000000000	consortium
0.0000000000	orbital
0.0000000000	rv
0.0000000000	underwater
0.0000000000	radar
0.0000000000	redistribution
0.0000000000	smarandache
0.0000000000	dezert
0.0000000000	pnn
0.0000000000	classi
0.0000000000	pour
0.0000000000	sonar
0.0000000000	interictal
0.0000000000	ictal
0.0000000000	seizure
0.0000000000	epilepsy
0.0000000000	omni
0.0000000000	immunological
0.0000000000	storm
0.0000000000	senior
0.0000000000	nursing
0.0000000000	coordinating
0.0000000000	ascertain
0.0000000000	wishes
0.0000000000	ward
0.0000000000	nurses
0.0000000000	uk
0.0000000000	dcs
0.0000000000	timetabling
0.0000000000	thumb
0.0000000000	dendritic
0.0000000000	rostering
0.0000000000	experimenting
0.0000000000	packet
0.0000000000	functioning
0.0000000000	unity
0.0000000000	elsewhere
0.0000000000	phenotypic
0.0000000000	proficiency
0.0000000000	transactional
0.0000000000	civil
0.0000000000	sga
0.0000000000	eas
0.0000000000	premature
0.0000000000	cga
0.0000000000	organizational
0.0000000000	acs
0.0000000000	dda
0.0000000000	nurse
0.0000000000	infancy
0.0000000000	urls
0.0000000000	iran
0.0000000000	granules
0.0000000000	pursues
0.0000000000	antigen
0.0000000000	nfis
0.0000000000	immunology
0.0000000000	granulation
0.0000000000	intend
0.0000000000	solvability
0.0000000000	66
0.0000000000	transmitting
0.0000000000	exceptions
0.0000000000	oil
0.0000000000	dga
0.0000000000	fst
0.0000000000	bushings
0.0000000000	perpetual
0.0000000000	bb
0.0000000000	railway
0.0000000000	decidability
0.0000000000	subclasses
0.0000000000	jones
0.0000000000	ab
0.0000000000	evolvable
0.0000000000	instantaneously
0.0000000000	modus
0.0000000000	disciplinary
0.0000000000	bacterial
0.0000000000	harvested
0.0000000000	regulate
0.0000000000	srs
0.0000000000	viewers
0.0000000000	extents
0.0000000000	doctor
0.0000000000	delete
0.0000000000	lin
0.0000000000	nsga
0.0000000000	multiobjective
0.0000000000	polynomially
0.0000000000	deceptive
0.0000000000	additively
0.0000000000	rts
0.0000000000	niching
0.0000000000	bloat
0.0000000000	clark
0.0000000000	genotypes
0.0000000000	baldwin
0.0000000000	stigmergy
0.0000000000	miner
0.0000000000	reproductive
0.0000000000	organism
0.0000000000	colonies
0.0000000000	organising
0.0000000000	grounds
0.0000000000	2002
0.0000000000	evolvability
0.0000000000	subsumption
0.0000000000	nonetheless
0.0000000000	searcher
0.0000000000	introductory
0.0000000000	tournaments
0.0000000000	speculative
0.0000000000	imaginary
0.0000000000	exercises
0.0000000000	formality
0.0000000000	tape
0.0000000000	assemblies
0.0000000000	isomorphism
0.0000000000	tank
0.0000000000	seventh
0.0000000000	proc
0.0000000000	1994
0.0000000000	metaconflict
0.0000000000	syst
0.0000000000	int
0.0000000000	proposition
0.0000000000	shafer
0.0000000000	dempster
0.0000000000	partitionings
0.0000000000	accordance
0.0000000000	testbeds
0.0000000000	nonspecific
0.0000000000	hypothesised
0.0000000000	sds
0.0000000000	substrate
0.0000000000	southern
0.0000000000	manifestations
0.0000000000	apparently
0.0000000000	approved
0.0000000000	provider
0.0000000000	mathsf
0.0000000000	dim
0.0000000000	sdr
0.0000000000	wsn
0.0000000000	lunch
0.0000000000	hotelling
0.0000000000	gda
0.0000000000	mda
0.0000000000	curvatures
0.0000000000	breakdown
0.0000000000	emulating
0.0000000000	shearlets
0.0000000000	weyl
0.0000000000	arch
0.0000000000	worked
0.0000000000	modulus
0.0000000000	ramp
0.0000000000	rhythms
0.0000000000	seizures
0.0000000000	epileptic
0.0000000000	iwslt
0.0000000000	summed
0.0000000000	delineate
0.0000000000	mandarin
0.0000000000	dfsmn
0.0000000000	mention
0.0000000000	char
0.0000000000	aggressively
0.0000000000	transducers
0.0000000000	governs
0.0000000000	wmt17
0.0000000000	frontier
0.0000000000	treebanks
0.0000000000	clstm
0.0000000000	cached
0.0000000000	fertility
0.0000000000	hopefully
0.0000000000	tale
0.0000000000	finnish
0.0000000000	magic
0.0000000000	cloze
0.0000000000	ubm
0.0000000000	spss
0.0000000000	hall
0.0000000000	productions
0.0000000000	authority
0.0000000000	fifty
0.0000000000	contextually
0.0000000000	tonal
0.0000000000	constitution
0.0000000000	mwes
0.0000000000	listeners
0.0000000000	cursive
0.0000000000	mwe
0.0000000000	multiword
0.0000000000	manipuri
0.0000000000	msc
0.0000000000	characterise
0.0000000000	rainfall
0.0000000000	epidemic
0.0000000000	occasions
0.0000000000	amr
0.0000000000	postures
0.0000000000	tubal
0.0000000000	pr
0.0000000000	convolving
0.0000000000	underpinning
0.0000000000	interdisciplinary
0.0000000000	thermodynamics
0.0000000000	pseudolikelihood
0.0000000000	ripple
0.0000000000	excluding
0.0000000000	intractability
0.0000000000	plurality
0.0000000000	peaks
0.0000000000	kld
0.0000000000	neurological
0.0000000000	touching
0.0000000000	niche
0.0000000000	varieties
0.0000000000	tubes
0.0000000000	ssc
0.0000000000	covariant
0.0000000000	kaczmarz
0.0000000000	rock
0.0000000000	tk
0.0000000000	enriches
0.0000000000	swimming
0.0000000000	confluence
0.0000000000	advocated
0.0000000000	unions
0.0000000000	luce
0.0000000000	terry
0.0000000000	bradley
0.0000000000	hungarian
0.0000000000	station
0.0000000000	spain
0.0000000000	sweet
0.0000000000	astrobiologist
0.0000000000	cyborg
0.0000000000	initializes
0.0000000000	multisensory
0.0000000000	affordable
0.0000000000	cbir
0.0000000000	gestural
0.0000000000	leakage
0.0000000000	salt
0.0000000000	wells
0.0000000000	assimilation
0.0000000000	intruder
0.0000000000	hazard
0.0000000000	roll
0.0000000000	richness
0.0000000000	agrees
0.0000000000	affairs
0.0000000000	btl
0.0000000000	copeland
0.0000000000	replica
0.0000000000	tsybakov
0.0000000000	genuinely
0.0000000000	intentional
0.0000000000	unresolved
0.0000000000	exchanging
0.0000000000	overfitted
0.0000000000	crossmodal
0.0000000000	snapshots
0.0000000000	superconducting
0.0000000000	subsystem
0.0000000000	respecting
0.0000000000	sensed
0.0000000000	rescue
0.0000000000	scott
0.0000000000	homeostasis
0.0000000000	warning
0.0000000000	circumventing
0.0000000000	planted
0.0000000000	unexpectedly
0.0000000000	chordal
0.0000000000	neighbours
0.0000000000	critique
0.0000000000	combinatorics
0.0000000000	sem
0.0000000000	profitable
0.0000000000	astrophysics
0.0000000000	graders
0.0000000000	commenting
0.0000000000	grader
0.0000000000	infinitesimal
0.0000000000	dichotomous
0.0000000000	cones
0.0000000000	certificate
0.0000000000	aixi
0.0000000000	novice
0.0000000000	digitization
0.0000000000	historians
0.0000000000	fonts
0.0000000000	sender
0.0000000000	chime
0.0000000000	factorize
0.0000000000	bow
0.0000000000	abbreviations
0.0000000000	err
0.0000000000	diversified
0.0000000000	diversification
0.0000000000	spoofing
0.0000000000	observables
0.0000000000	cinematography
0.0000000000	emergencies
0.0000000000	entered
0.0000000000	sk
0.0000000000	geographic
0.0000000000	assistive
0.0000000000	assurance
0.0000000000	mediate
0.0000000000	fledged
0.0000000000	join
0.0000000000	clarity
0.0000000000	judgment
0.0000000000	objectivity
0.0000000000	timestamps
0.0000000000	journalists
0.0000000000	citizen
0.0000000000	buried
0.0000000000	asset
0.0000000000	credibility
0.0000000000	politeness
0.0000000000	centred
0.0000000000	lasting
0.0000000000	poster
0.0000000000	discipline
0.0000000000	fca
0.0000000000	dyadic
0.0000000000	friendships
0.0000000000	interpersonal
0.0000000000	opponents
0.0000000000	winners
0.0000000000	debates
0.0000000000	stripping
0.0000000000	posters
0.0000000000	23
0.0000000000	histories
0.0000000000	sex
0.0000000000	genotype
0.0000000000	makeup
0.0000000000	mainstream
0.0000000000	exclude
0.0000000000	restore
0.0000000000	agile
0.0000000000	uncontrollable
0.0000000000	violation
0.0000000000	tr
0.0000000000	ring
0.0000000000	contraction
0.0000000000	discarded
0.0000000000	undersampled
0.0000000000	knowledgeable
0.0000000000	inhibit
0.0000000000	fb
0.0000000000	bessel
0.0000000000	certification
0.0000000000	val
0.0000000000	asian
0.0000000000	east
0.0000000000	shortage
0.0000000000	metastases
0.0000000000	oscillating
0.0000000000	telescopes
0.0000000000	satellites
0.0000000000	zoom
0.0000000000	slide
0.0000000000	histopathological
0.0000000000	stamp
0.0000000000	slides
0.0000000000	worthy
0.0000000000	permeability
0.0000000000	fragile
0.0000000000	sinkhorn
0.0000000000	cropping
0.0000000000	commercially
0.0000000000	140
0.0000000000	susceptibility
0.0000000000	st
0.0000000000	chromosome
0.0000000000	chromosomes
0.0000000000	countermeasures
0.0000000000	lsgans
0.0000000000	hugely
0.0000000000	stylized
0.0000000000	bright
0.0000000000	shutter
0.0000000000	logos
0.0000000000	burst
0.0000000000	paint
0.0000000000	logo
0.0000000000	halving
0.0000000000	zhu
0.0000000000	steganography
0.0000000000	horses
0.0000000000	intermittent
0.0000000000	federated
0.0000000000	smbo
0.0000000000	cities
0.0000000000	mls
0.0000000000	divisions
0.0000000000	abductive
0.0000000000	instrumentation
0.0000000000	liver
0.0000000000	parameterize
0.0000000000	vat
0.0000000000	ned
0.0000000000	superpixel
0.0000000000	bcd
0.0000000000	frontal
0.0000000000	sliced
0.0000000000	mathscr
0.0000000000	holes
0.0000000000	cur
0.0000000000	african
0.0000000000	daytime
0.0000000000	landsat
0.0000000000	adopts
0.0000000000	omp
0.0000000000	weizmann
0.0000000000	gms
0.0000000000	expansive
0.0000000000	lowered
0.0000000000	archetypes
0.0000000000	idp
0.0000000000	finger
0.0000000000	fpgas
0.0000000000	contacts
0.0000000000	contact
0.0000000000	msrc
0.0000000000	touch
0.0000000000	feeling
0.0000000000	groupings
0.0000000000	multibox
0.0000000000	nose
0.0000000000	stabilized
0.0000000000	copula
0.0000000000	demographics
0.0000000000	demographic
0.0000000000	eigenspace
0.0000000000	3.4
0.0000000000	csc
0.0000000000	rankness
0.0000000000	failing
0.0000000000	normalised
0.0000000000	bce
0.0000000000	minimise
0.0000000000	compressible
0.0000000000	market1501
0.0000000000	cuhk03
0.0000000000	gallery
0.0000000000	proteins
0.0000000000	fluorescent
0.0000000000	fluorescence
0.0000000000	imaged
0.0000000000	julia
0.0000000000	qr
0.0000000000	mars
0.0000000000	vid
0.0000000000	ilids
0.0000000000	cgan
0.0000000000	searched
0.0000000000	distort
0.0000000000	seeded
0.0000000000	todays
0.0000000000	psychologists
0.0000000000	periodicity
0.0000000000	sport
0.0000000000	spl
0.0000000000	wrappers
0.0000000000	paced
0.0000000000	sharpen
0.0000000000	8m
0.0000000000	bursty
0.0000000000	poseidon
0.0000000000	hyperplanes
0.0000000000	dpcp
0.0000000000	radiologists
0.0000000000	automates
0.0000000000	hallucinated
0.0000000000	cyclegan
0.0000000000	ul
0.0000000000	ndcg
0.0000000000	deployable
0.0000000000	codec
0.0000000000	0.02
0.0000000000	0.95
0.0000000000	approval
0.0000000000	maturity
0.0000000000	fracture
0.0000000000	pixelcnn
0.0000000000	femur
0.0000000000	suffering
0.0000000000	0.85
0.0000000000	stare
0.0000000000	centerline
0.0000000000	unweighted
0.0000000000	mae
0.0000000000	2.9
0.0000000000	quadruplet
0.0000000000	hotspot
0.0000000000	captchas
0.0000000000	orbit
0.0000000000	synthesise
0.0000000000	behaving
0.0000000000	enlarging
0.0000000000	outlying
0.0000000000	enlarged
0.0000000000	3000
0.0000000000	abnormality
0.0000000000	lungs
0.0000000000	airways
0.0000000000	abnormalities
0.0000000000	bones
0.0000000000	competitiveness
0.0000000000	radiographs
0.0000000000	panoramic
0.0000000000	gossip
0.0000000000	localizations
0.0000000000	mounting
0.0000000000	dgms
0.0000000000	mount
0.0000000000	denoiser
0.0000000000	luminance
0.0000000000	ucla
0.0000000000	necessitating
0.0000000000	terabytes
0.0000000000	departments
0.0000000000	worn
0.0000000000	disparities
0.0000000000	installed
0.0000000000	epipolar
0.0000000000	opf
0.0000000000	slices
0.0000000000	ventricle
0.0000000000	regularisers
0.0000000000	tomographic
0.0000000000	therein
0.0000000000	intelligences
0.0000000000	judging
0.0000000000	shorten
0.0000000000	connectedness
0.0000000000	chervonenkis
0.0000000000	suppression
0.0000000000	discontinuities
0.0000000000	disturbances
0.0000000000	vertical
0.0000000000	expedite
0.0000000000	soil
0.0000000000	pathologists
0.0000000000	vessel
0.0000000000	nematode
0.0000000000	cyst
0.0000000000	soybean
0.0000000000	vessels
0.0000000000	coil
0.0000000000	complicates
0.0000000000	contractions
0.0000000000	regressions
0.0000000000	homogeneity
0.0000000000	remotely
0.0000000000	imager
0.0000000000	delineation
0.0000000000	intraoperative
0.0000000000	flownet
0.0000000000	nighttime
0.0000000000	season
0.0000000000	hair
0.0000000000	synthesised
0.0000000000	heating
0.0000000000	criticality
0.0000000000	windowing
0.0000000000	condensed
0.0000000000	3.5
0.0000000000	ransac
0.0000000000	beautiful
0.0000000000	nnd
0.0000000000	pen
0.0000000000	marching
0.0000000000	dendrogram
0.0000000000	adhd
0.0000000000	disorder
0.0000000000	robustify
0.0000000000	commons
0.0000000000	oftentimes
0.0000000000	waste
0.0000000000	sdp
0.0000000000	nondominated
0.0000000000	electron
0.0000000000	cryo
0.0000000000	nd
0.0000000000	microscopic
0.0000000000	sdc
0.0000000000	clarify
0.0000000000	divisive
0.0000000000	uos
0.0000000000	axiom
0.0000000000	hashes
0.0000000000	resting
0.0000000000	opposing
0.0000000000	mover
0.0000000000	scikit
0.0000000000	camvid
0.0000000000	91
0.0000000000	disc
0.0000000000	optic
0.0000000000	geodesics
0.0000000000	deformed
0.0000000000	fiber
0.0000000000	gg
0.0000000000	mesoscopic
0.0000000000	grossly
0.0000000000	entropic
0.0000000000	nonnegativity
0.0000000000	exacerbated
0.0000000000	subtracting
0.0000000000	conical
0.0000000000	rays
0.0000000000	donoho
0.0000000000	accelerometers
0.0000000000	negatively
0.0000000000	zone
0.0000000000	rectangle
0.0000000000	dental
0.0000000000	osteoarthritis
0.0000000000	bone
0.0000000000	viterbi
0.0000000000	knee
0.0000000000	maybe
0.0000000000	vowels
0.0000000000	dan
0.0000000000	52
0.0000000000	auroc
0.0000000000	ophthalmology
0.0000000000	360
0.0000000000	spm
0.0000000000	wm
0.0000000000	gm
0.0000000000	gpr
0.0000000000	ages
0.0000000000	centre
0.0000000000	twins
0.0000000000	adults
0.0000000000	ageing
0.0000000000	biomarker
0.0000000000	complemented
0.0000000000	als
0.0000000000	atlas
0.0000000000	miccai
0.0000000000	reconstructive
0.0000000000	uncoupled
0.0000000000	psd
0.0000000000	pioneer
0.0000000000	archetypal
0.0000000000	descending
0.0000000000	vapnik
0.0000000000	gestalt
0.0000000000	wnnm
0.0000000000	nnm
0.0000000000	loadings
0.0000000000	diversify
0.0000000000	rotate
0.0000000000	intimate
0.0000000000	symmetrization
0.0000000000	meaningfulness
0.0000000000	pulled
0.0000000000	dml
0.0000000000	subordinate
0.0000000000	fgvc
0.0000000000	isometric
0.0000000000	schatten
0.0000000000	irls
0.0000000000	panels
0.0000000000	stylistic
0.0000000000	parafac
0.0000000000	countless
0.0000000000	secure
0.0000000000	biometrics
0.0000000000	cancelable
0.0000000000	collapsed
0.0000000000	recast
0.0000000000	vb
0.0000000000	cvm
0.0000000000	3.7
0.0000000000	meters
0.0000000000	qp
0.0000000000	rooms
0.0000000000	indian
0.0000000000	albedo
0.0000000000	qap
0.0000000000	lambertian
0.0000000000	purity
0.0000000000	heat
0.0000000000	ee
0.0000000000	elastica
0.0000000000	euler
0.0000000000	warps
0.0000000000	binocular
0.0000000000	ecoc
0.0000000000	ijb
0.0000000000	avalanche
0.0000000000	curl
0.0000000000	fms
0.0000000000	inliers
0.0000000000	datum
0.0000000000	grabcut
0.0000000000	opencv
0.0000000000	goldberg
0.0000000000	kolmogorov
0.0000000000	cuts
0.0000000000	gpo
0.0000000000	keyframes
0.0000000000	corel
0.0000000000	keyframe
0.0000000000	oscar
0.0000000000	subtly
0.0000000000	absolutely
0.0000000000	undefined
0.0000000000	kinetics
0.0000000000	pdf
0.0000000000	lpp
0.0000000000	equivalents
0.0000000000	grassmann
0.0000000000	voters
0.0000000000	relocation
0.0000000000	prism
0.0000000000	gross
0.0000000000	brazilian
0.0000000000	mutations
0.0000000000	copes
0.0000000000	differencing
0.0000000000	nystrom
0.0000000000	promoted
0.0000000000	axiomatic
0.0000000000	lk
0.0000000000	ought
0.0000000000	5th
0.0000000000	kaggle
0.0000000000	coverings
0.0000000000	matchings
0.0000000000	icml
0.0000000000	agglomeration
0.0000000000	pioneering
0.0000000000	davis
0.0000000000	microscopy
0.0000000000	analyzers
0.0000000000	klsh
0.0000000000	slope
0.0000000000	vantage
0.0000000000	plots
0.0000000000	wu
0.0000000000	logarithm
0.0000000000	cauchy
0.0000000000	emm
0.0000000000	pda
0.0000000000	polyhedral
0.0000000000	scalarizing
0.0000000000	lift
0.0000000000	epitome
0.0000000000	structuring
0.0000000000	adic
0.0000000000	linkages
0.0000000000	ultrametric
0.0000000000	invariants
0.0000000000	5k
0.0000000000	shapenet
0.0000000000	performer
0.0000000000	cvpr
0.0000000000	colored
0.0000000000	eap
0.0000000000	confidently
0.0000000000	footage
0.0000000000	analogously
0.0000000000	shuffled
0.0000000000	ameliorate
0.0000000000	capsule
0.0000000000	artwork
0.0000000000	artists
0.0000000000	animation
0.0000000000	photography
0.0000000000	assisting
0.0000000000	cgans
0.0000000000	outfit
0.0000000000	disrupted
0.0000000000	hazards
0.0000000000	medial
0.0000000000	consolidated
0.0000000000	purchasing
0.0000000000	bursts
0.0000000000	ade20k
0.0000000000	earth
0.0000000000	tumour
0.0000000000	multiset
0.0000000000	humanity
0.0000000000	urgent
0.0000000000	societal
0.0000000000	geosciences
0.0000000000	brats
0.0000000000	displacements
0.0000000000	illustration
0.0000000000	nutshell
0.0000000000	oblique
0.0000000000	dice
0.0000000000	icub
0.0000000000	infected
0.0000000000	microscopes
0.0000000000	avec
0.0000000000	ft
0.0000000000	20x
0.0000000000	argues
0.0000000000	conforms
0.0000000000	anonymity
0.0000000000	blurring
0.0000000000	photographic
0.0000000000	0.94
0.0000000000	0.89
0.0000000000	comparator
0.0000000000	metal
0.0000000000	integrity
0.0000000000	quantizer
0.0000000000	replicates
0.0000000000	ventral
0.0000000000	impressions
0.0000000000	physiology
0.0000000000	cub
0.0000000000	assesses
0.0000000000	codeword
0.0000000000	henceforth
0.0000000000	deblurring
0.0000000000	observers
0.0000000000	roughness
0.0000000000	telling
0.0000000000	appearances
0.0000000000	interdependency
0.0000000000	diseased
0.0000000000	beltrami
0.0000000000	eigenfunctions
0.0000000000	t1
0.0000000000	mapper
0.0000000000	localise
0.0000000000	youtu.be
0.0000000000	persist
0.0000000000	closure
0.0000000000	str
0.0000000000	immersive
0.0000000000	contributed
0.0000000000	apples
0.0000000000	pragmatic
0.0000000000	orchards
0.0000000000	drivable
0.0000000000	cyclists
0.0000000000	buses
0.0000000000	grad
0.0000000000	autonomy
0.0000000000	broadening
0.0000000000	swiss
0.0000000000	tooth
0.0000000000	shoot
0.0000000000	customizable
0.0000000000	crbm
0.0000000000	depart
0.0000000000	contradicting
0.0000000000	sad
0.0000000000	smiling
0.0000000000	suppressing
0.0000000000	downward
0.0000000000	inspiring
0.0000000000	posedness
0.0000000000	hardly
0.0000000000	nyu
0.0000000000	libsvm
0.0000000000	appliances
0.0000000000	recurrently
0.0000000000	hsi
0.0000000000	numerals
0.0000000000	roman
0.0000000000	researcher
0.0000000000	ep
0.0000000000	displays
0.0000000000	om
0.0000000000	prohibit
0.0000000000	lrf
0.0000000000	neighbouring
0.0000000000	dpm
0.0000000000	marginally
0.0000000000	unconventional
0.0000000000	adni
0.0000000000	msd
0.0000000000	mart
0.0000000000	complexes
0.0000000000	homology
0.0000000000	simplicial
0.0000000000	sheet
0.0000000000	accomplishes
0.0000000000	activitynet
0.0000000000	cm
0.0000000000	regress
0.0000000000	performers
0.0000000000	vot
0.0000000000	egomotion
0.0000000000	photometric
0.0000000000	vo
0.0000000000	shading
0.0000000000	recombination
0.0000000000	reflectance
0.0000000000	joins
0.0000000000	intrinsics
0.0000000000	distraction
0.0000000000	mot
0.0000000000	0.97
0.0000000000	hemorrhage
0.0000000000	deposition
0.0000000000	r2
0.0000000000	infarction
0.0000000000	myocardial
0.0000000000	acute
0.0000000000	acquisitions
0.0000000000	survive
0.0000000000	iq
0.0000000000	hazy
0.0000000000	rms
0.0000000000	dehazing
0.0000000000	aam
0.0000000000	rgbd
0.0000000000	archive
0.0000000000	shoulder
0.0000000000	vas
0.0000000000	blur
0.0000000000	harsh
0.0000000000	512
0.0000000000	calling
0.0000000000	fingers
0.0000000000	thing
0.0000000000	canny
0.0000000000	posture
0.0000000000	accessories
0.0000000000	agriculture
0.0000000000	attaining
0.0000000000	tempering
0.0000000000	tamper
0.0000000000	forged
0.0000000000	footprints
0.0000000000	forensics
0.0000000000	unexplained
0.0000000000	college
0.0000000000	forgery
0.0000000000	probes
0.0000000000	illumination
0.0000000000	requesting
0.0000000000	avenue
0.0000000000	diagrammatic
0.0000000000	rooted
0.0000000000	practicability
0.0000000000	servoing
0.0000000000	manipulators
0.0000000000	servo
0.0000000000	gripper
0.0000000000	feel
0.0000000000	boils
0.0000000000	representativeness
0.0000000000	superpixels
0.0000000000	dominance
0.0000000000	directs
0.0000000000	splines
0.0000000000	warehouse
0.0000000000	39
0.0000000000	linearized
0.0000000000	skeletons
0.0000000000	gravity
0.0000000000	utmost
0.0000000000	obscure
0.0000000000	glitches
0.0000000000	gravitational
0.0000000000	ligo
0.0000000000	abstain
0.0000000000	abstention
0.0000000000	regulator
0.0000000000	ultrafast
0.0000000000	pulse
0.0000000000	symptom
0.0000000000	sylvester
0.0000000000	retail
0.0000000000	sos
0.0000000000	uncorrupted
0.0000000000	psrs
0.0000000000	maritime
0.0000000000	hoeffding
0.0000000000	compliant
0.0000000000	admission
0.0000000000	stay
0.0000000000	entitled
0.0000000000	polygonal
0.0000000000	impression
0.0000000000	bid
0.0000000000	blindly
0.0000000000	cliques
0.0000000000	deletions
0.0000000000	oblivious
0.0000000000	neurodegenerative
0.0000000000	160
0.0000000000	distilled
0.0000000000	professionals
0.0000000000	complications
0.0000000000	rff
0.0000000000	sfm
0.0000000000	discretize
0.0000000000	forced
0.0000000000	hospitals
0.0000000000	distantly
0.0000000000	backing
0.0000000000	skilled
0.0000000000	tabulation
0.0000000000	dp
0.0000000000	erl
0.0000000000	finish
0.0000000000	behavioural
0.0000000000	wear
0.0000000000	apple
0.0000000000	stratification
0.0000000000	biomarkers
0.0000000000	defend
0.0000000000	apnea
0.0000000000	merges
0.0000000000	height
0.0000000000	cobra
0.0000000000	krr
0.0000000000	tl
0.0000000000	sgm
0.0000000000	detectable
0.0000000000	changepoint
0.0000000000	personal
0.0000000000	adhere
0.0000000000	lars
0.0000000000	fpl
0.0000000000	clever
0.0000000000	inhibitors
0.0000000000	spi
0.0000000000	bottle
0.0000000000	scheduler
0.0000000000	plugging
0.0000000000	backend
0.0000000000	beginners
0.0000000000	tourism
0.0000000000	edward
0.0000000000	caching
0.0000000000	53
0.0000000000	antecedent
0.0000000000	literals
0.0000000000	postprocessing
0.0000000000	measurable
0.0000000000	guideline
0.0000000000	elaborated
0.0000000000	safer
0.0000000000	threaten
0.0000000000	persuasive
0.0000000000	skeletal
0.0000000000	texttt
0.0000000000	nk
0.0000000000	mobility
0.0000000000	leq
0.0000000000	smartphone
0.0000000000	0.001
0.0000000000	casts
0.0000000000	lanczos
0.0000000000	chebyshev
0.0000000000	congestion
0.0000000000	commitment
0.0000000000	electric
0.0000000000	potts
0.0000000000	ferromagnetic
0.0000000000	reformulations
0.0000000000	umbrella
0.0000000000	illustrations
0.0000000000	releases
0.0000000000	sag
0.0000000000	ggms
0.0000000000	aliasing
0.0000000000	prioritized
0.0000000000	ode
0.0000000000	prioritize
0.0000000000	sketching
0.0000000000	loyal
0.0000000000	inserting
0.0000000000	densification
0.0000000000	hypernetworks
0.0000000000	distributive
0.0000000000	formalizations
0.0000000000	suboptimality
0.0000000000	ecosystem
0.0000000000	sell
0.0000000000	bach
0.0000000000	melodies
0.0000000000	banach
0.0000000000	critics
0.0000000000	launching
0.0000000000	anticipation
0.0000000000	enumerate
0.0000000000	radiology
0.0000000000	realworld
0.0000000000	reflection
0.0000000000	wp
0.0000000000	inlier
0.0000000000	saga
0.0000000000	jensen
0.0000000000	delivering
0.0000000000	regulations
0.0000000000	unnecessarily
0.0000000000	initiatives
0.0000000000	penetration
0.0000000000	repairing
0.0000000000	postulated
0.0000000000	prevention
0.0000000000	repairs
0.0000000000	strike
0.0000000000	deepmind
0.0000000000	generalises
0.0000000000	tile
0.0000000000	seller
0.0000000000	buyer
0.0000000000	geodesic
0.0000000000	basin
0.0000000000	replicating
0.0000000000	mc
0.0000000000	inconsistencies
0.0000000000	bc
0.0000000000	8x
0.0000000000	deserves
0.0000000000	entering
0.0000000000	subgoal
0.0000000000	pendulum
0.0000000000	discriminates
0.0000000000	certificates
0.0000000000	ls
0.0000000000	histopathology
0.0000000000	coincides
0.0000000000	month
0.0000000000	6th
0.0000000000	4th
0.0000000000	1st
0.0000000000	sbp
0.0000000000	correlating
0.0000000000	cocktail
0.0000000000	arterial
0.0000000000	turned
0.0000000000	joining
0.0000000000	inventory
0.0000000000	forecasts
0.0000000000	happening
0.0000000000	credible
0.0000000000	decentralized
0.0000000000	zones
0.0000000000	disagree
0.0000000000	advisor
0.0000000000	individualized
0.0000000000	cgp
0.0000000000	die
0.0000000000	answered
0.0000000000	hashtag
0.0000000000	hashtags
0.0000000000	articulatory
0.0000000000	intersections
0.0000000000	halfspaces
0.0000000000	concavity
0.0000000000	troubleshooting
0.0000000000	geq
0.0000000000	hs
0.0000000000	opacity
0.0000000000	realizability
0.0000000000	dt
0.0000000000	deepen
0.0000000000	pcl
0.0000000000	sciences
0.0000000000	simon
0.0000000000	subseteq
0.0000000000	vc
0.0000000000	compiled
0.0000000000	folding
0.0000000000	kendall
0.0000000000	minmax
0.0000000000	determinism
0.0000000000	complication
0.0000000000	tour
0.0000000000	deduce
0.0000000000	nm
0.0000000000	conservation
0.0000000000	cox
0.0000000000	configured
0.0000000000	dpll
0.0000000000	unequal
0.0000000000	satisfactorily
0.0000000000	hcn
0.0000000000	captcha
0.0000000000	concatenating
0.0000000000	comfort
0.0000000000	negotiation
0.0000000000	uniformity
0.0000000000	independency
0.0000000000	disagreements
0.0000000000	interfere
0.0000000000	incentives
0.0000000000	anger
0.0000000000	interrelated
0.0000000000	kepler
0.0000000000	knn
0.0000000000	toolboxes
0.0000000000	presumed
0.0000000000	interrelationship
0.0000000000	psrl
0.0000000000	rdn
0.0000000000	schmidt
0.0000000000	hybridized
0.0000000000	movielens
0.0000000000	conductance
0.0000000000	protection
0.0000000000	1989
0.0000000000	corollary
0.0000000000	inhomogeneous
0.0000000000	seminal
0.0000000000	rests
0.0000000000	synopsis
0.0000000000	markedly
0.0000000000	tac
0.0000000000	celebrated
0.0000000000	encompasses
0.0000000000	slate
0.0000000000	bins
0.0000000000	veracity
0.0000000000	epidemiology
0.0000000000	kp
0.0000000000	relaxes
0.0000000000	ecology
0.0000000000	nonparanormal
0.0000000000	appliance
0.0000000000	supply
0.0000000000	disaggregation
0.0000000000	involvement
0.0000000000	dichotomy
0.0000000000	appropriateness
0.0000000000	him
0.0000000000	bullet
0.0000000000	silver
0.0000000000	psi
0.0000000000	sufficiency
0.0000000000	exemplars
0.0000000000	stan
0.0000000000	minecraft
0.0000000000	nystr
0.0000000000	advi
0.0000000000	differentiated
0.0000000000	sup
0.0000000000	repeats
0.0000000000	posits
0.0000000000	recoverability
0.0000000000	countable
0.0000000000	trustworthy
0.0000000000	carries
0.0000000000	asap
0.0000000000	slice
0.0000000000	tail
0.0000000000	reversed
0.0000000000	gini
0.0000000000	c4.5
0.0000000000	tsallis
0.0000000000	coarsely
0.0000000000	dsa
0.0000000000	mogp
0.0000000000	integrality
0.0000000000	looser
0.0000000000	universe
0.0000000000	transactions
0.0000000000	suspicious
0.0000000000	chronic
0.0000000000	empowerment
0.0000000000	esa
0.0000000000	clients
0.0000000000	client
0.0000000000	codebooks
0.0000000000	recognised
0.0000000000	regressive
0.0000000000	definiteness
0.0000000000	prosthetic
0.0000000000	van
0.0000000000	restoration
0.0000000000	linkage
0.0000000000	dictated
0.0000000000	subroutines
0.0000000000	martingale
0.0000000000	conveniently
0.0000000000	pulling
0.0000000000	knapsack
0.0000000000	physically
0.0000000000	smoothers
0.0000000000	adaptivity
0.0000000000	univariate
0.0000000000	diversifying
0.0000000000	compile
0.0000000000	compilation
0.0000000000	bhattacharyya
0.0000000000	isomorphic
0.0000000000	lds
0.0000000000	prioritization
0.0000000000	pyramids
0.0000000000	stopped
0.0000000000	impaired
0.0000000000	preconditions
0.0000000000	popularized
0.0000000000	rehabilitation
0.0000000000	mip
0.0000000000	salesperson
0.0000000000	conform
0.0000000000	ve
0.0000000000	protecting
0.0000000000	violations
0.0000000000	hedge
0.0000000000	sorts
0.0000000000	laws
0.0000000000	governed
0.0000000000	govern
0.0000000000	pilots
0.0000000000	mp
0.0000000000	csps
0.0000000000	alphabet
0.0000000000	covariates
0.0000000000	anisotropy
0.0000000000	tacit
0.0000000000	tilde
0.0000000000	rectangular
0.0000000000	fixation
0.0000000000	doubly
0.0000000000	hci
0.0000000000	queried
0.0000000000	bed
0.0000000000	competes
0.0000000000	polylogarithmic
0.0000000000	illness
0.0000000000	dengue
0.0000000000	medoids
0.0000000000	identically
0.0000000000	cpi
0.0000000000	harmful
0.0000000000	neglected
0.0000000000	anymore
0.0000000000	usability
0.0000000000	workflows
0.0000000000	plenty
0.0000000000	matroids
0.0000000000	matroid
0.0000000000	hypercube
0.0000000000	covariances
0.0000000000	wishart
0.0000000000	attraction
0.0000000000	stating
0.0000000000	counterexample
0.0000000000	deficiency
0.0000000000	trapped
0.0000000000	axioms
0.0000000000	triangle
0.0000000000	independences
0.0000000000	normality
0.0000000000	cpts
0.0000000000	taming
0.0000000000	allowable
0.0000000000	cpt
0.0000000000	nonzero
0.0000000000	ges
0.0000000000	odd
0.0000000000	cccp
0.0000000000	odds
0.0000000000	ergodic
0.0000000000	schapire
0.0000000000	daubechies
0.0000000000	coined
0.0000000000	nonlocal
0.0000000000	2004
0.0000000000	uncovered
0.0000000000	mop
0.0000000000	subtypes
0.0000000000	geographical
0.0000000000	cavity
0.0000000000	strain
0.0000000000	skene
0.0000000000	dawid
0.0000000000	revisits
0.0000000000	confusions
0.0000000000	datapoint
0.0000000000	hypergraph
0.0000000000	faulty
0.0000000000	tensorial
0.0000000000	utilise
0.0000000000	arena
0.0000000000	shannon
0.0000000000	ces
0.0000000000	1987
0.0000000000	duplicate
0.0000000000	h2pc
0.0000000000	hpc
0.0000000000	thread
0.0000000000	cytometry
0.0000000000	confounders
0.0000000000	subproblem
0.0000000000	misleading
0.0000000000	cg
0.0000000000	ucb1
0.0000000000	compromises
0.0000000000	meek
0.0000000000	faithfulness
0.0000000000	amp
0.0000000000	eb
0.0000000000	tabu
0.0000000000	bagged
0.0000000000	esp
0.0000000000	accommodates
0.0000000000	signs
0.0000000000	tpr
0.0000000000	moral
0.0000000000	breadth
0.0000000000	strips
0.0000000000	geological
0.0000000000	kalai
0.0000000000	isotonic
0.0000000000	id3
0.0000000000	interleaved
0.0000000000	pointed
0.0000000000	say
0.0000000000	nb
0.0000000000	deserve
0.0000000000	irl
0.0000000000	gbs
0.0000000000	organizes
0.0000000000	tractably
0.0000000000	evidential
0.0000000000	integrals
0.0000000000	beside
0.0000000000	hypertree
0.0000000000	invited
0.0000000000	csr
0.0000000000	kick
0.0000000000	liu
0.0000000000	chow
0.0000000000	dags
0.0000000000	friedman
0.0000000000	agglomerative
0.0000000000	division
0.0000000000	webpage
0.0000000000	nonuniform
0.0000000000	labeler
0.0000000000	idealized
0.0000000000	outperformance
0.0000000000	revision
0.0000000000	actuation
0.0000000000	separators
0.0000000000	forecaster
0.0000000000	disambiguated
0.0000000000	hinges
0.0000000000	occam
0.0000000000	disjunction
0.0000000000	denoisers
0.0000000000	verifiable
0.0000000000	repeatable
0.0000000000	microarray
0.0000000000	stumps
0.0000000000	conjunctions
0.0000000000	manet
0.0000000000	opportunistic
0.0000000000	stays
0.0000000000	ac
0.0000000000	discounted
0.0000000000	raising
0.0000000000	2n
0.0000000000	removal
0.0000000000	counterexamples
0.0000000000	il
0.0000000000	penalization
0.0000000000	illusion
0.0000000000	definitely
0.0000000000	widetilde
0.0000000000	personalization
0.0000000000	sends
0.0000000000	counterfactuals
0.0000000000	city
0.0000000000	monotonicity
0.0000000000	displacement
0.0000000000	maximising
0.0000000000	densely
0.0000000000	sure
0.0000000000	infty
0.0000000000	contamination
0.0000000000	omd
0.0000000000	grasp
0.0000000000	grasps
0.0000000000	gq
0.0000000000	precipitation
0.0000000000	epistemic
0.0000000000	tsp
0.0000000000	traveling
0.0000000000	reviewed
0.0000000000	misclassifications
0.0000000000	vrp
0.0000000000	srl
0.0000000000	lookahead
0.0000000000	cl
0.0000000000	lc
0.0000000000	debugging
0.0000000000	equip
0.0000000000	spreads
0.0000000000	markers
0.0000000000	necessitate
0.0000000000	frontiers
0.0000000000	supplemented
0.0000000000	press
0.0000000000	ago
0.0000000000	appraisal
0.0000000000	svgd
0.0000000000	stein
0.0000000000	intentionally
0.0000000000	spheres
0.0000000000	neighbour
0.0000000000	discoveries
0.0000000000	calibration
0.0000000000	junctions
0.0000000000	splice
0.0000000000	geometries
0.0000000000	instrumental
0.0000000000	ran
0.0000000000	informs
0.0000000000	provision
0.0000000000	originates
0.0000000000	dealt
0.0000000000	covariate
0.0000000000	businesses
0.0000000000	butterfly
0.0000000000	exp3
0.0000000000	clique
0.0000000000	kgs
0.0000000000	revisiting
0.0000000000	zeros
0.0000000000	frobenius
0.0000000000	strengthens
0.0000000000	fab
0.0000000000	disadvantage
0.0000000000	submodularity
0.0000000000	spanning
0.0000000000	2.1
0.0000000000	genomes
0.0000000000	dissimilarities
0.0000000000	bf
0.0000000000	sml
0.0000000000	randomness
0.0000000000	node2vec
0.0000000000	deepwalk
0.0000000000	bus
0.0000000000	police
0.0000000000	club
0.0000000000	calibrate
0.0000000000	quantizing
0.0000000000	lspi
0.0000000000	lstd
0.0000000000	coreset
0.0000000000	ieee
0.0000000000	dns
0.0000000000	cooling
0.0000000000	coresets
0.0000000000	horn
0.0000000000	ourselves
0.0000000000	quantifies
0.0000000000	af
0.0000000000	ilp
0.0000000000	cls
0.0000000000	consolidation
0.0000000000	conscious
0.0000000000	consciousness
0.0000000000	lengthy
0.0000000000	hopfield
0.0000000000	57
0.0000000000	optimism
0.0000000000	deviation
0.0000000000	kleinberg
0.0000000000	supervising
0.0000000000	uplift
0.0000000000	budgeted
0.0000000000	bijective
0.0000000000	borrows
0.0000000000	enclosing
0.0000000000	elicited
0.0000000000	sne
0.0000000000	bridges
0.0000000000	harmonic
0.0000000000	diarization
0.0000000000	conjugacy
0.0000000000	restores
0.0000000000	misspecification
0.0000000000	microscope
0.0000000000	stresses
0.0000000000	telescope
0.0000000000	snakes
0.0000000000	unobservable
0.0000000000	sems
0.0000000000	psychophysics
0.0000000000	sparsest
0.0000000000	touchscreen
0.0000000000	gbn
0.0000000000	algorithmically
0.0000000000	america
0.0000000000	minimality
0.0000000000	venue
0.0000000000	completeness
0.0000000000	indexed
0.0000000000	mrf
0.0000000000	stemming
0.0000000000	unfair
0.0000000000	shapley
0.0000000000	bugs
0.0000000000	parity
0.0000000000	violates
0.0000000000	exclusive
0.0000000000	aide
0.0000000000	mml
0.0000000000	prox
0.0000000000	vr
0.0000000000	stepsize
0.0000000000	hereafter
0.0000000000	fruit
0.0000000000	charge
0.0000000000	prefer
0.0000000000	inefficiency
0.0000000000	rs
0.0000000000	maxima
0.0000000000	volatile
0.0000000000	fighting
0.0000000000	except
0.0000000000	strengthening
0.0000000000	invested
0.0000000000	ekf
0.0000000000	competitors
0.0000000000	rtd
0.0000000000	sudoku
0.0000000000	primal
0.0000000000	bilevel
0.0000000000	foundations
0.0000000000	parties
0.0000000000	sided
0.0000000000	rho
0.0000000000	diagonalization
0.0000000000	frugal
0.0000000000	kriging
0.0000000000	chunks
0.0000000000	ha
0.0000000000	chunk
0.0000000000	mvp
0.0000000000	anchor
0.0000000000	weka
0.0000000000	a3c
0.0000000000	stabilization
0.0000000000	consequential
0.0000000000	acyclicity
0.0000000000	acknowledging
0.0000000000	encapsulates
0.0000000000	uct
0.0000000000	eg
0.0000000000	granting
0.0000000000	ppls
0.0000000000	diabetes
0.0000000000	slack
0.0000000000	preferentially
0.0000000000	cation
0.0000000000	con
0.0000000000	networked
0.0000000000	dots
0.0000000000	ei
0.0000000000	stamped
0.0000000000	drifting
0.0000000000	autocorrelation
0.0000000000	perceptions
0.0000000000	rsm
0.0000000000	ecg
0.0000000000	thereafter
0.0000000000	aircrafts
0.0000000000	borderline
0.0000000000	circumvents
0.0000000000	rover
0.0000000000	terrain
0.0000000000	reachability
0.0000000000	violating
0.0000000000	reachable
0.0000000000	ocean
0.0000000000	temperatures
0.0000000000	unsafe
0.0000000000	disclosed
0.0000000000	practicality
0.0000000000	completing
0.0000000000	weed
0.0000000000	transitive
0.0000000000	ops
0.0000000000	ucb
0.0000000000	retargeting
0.0000000000	obtainable
0.0000000000	sims
0.0000000000	reflexive
0.0000000000	void
0.0000000000	longstanding
0.0000000000	stateof
0.0000000000	restless
0.0000000000	td
0.0000000000	discount
0.0000000000	invoked
0.0000000000	emulator
0.0000000000	idiom
0.0000000000	admit
0.0000000000	anytime
0.0000000000	min
0.0000000000	gpp
0.0000000000	favour
0.0000000000	legal
0.0000000000	censoring
0.0000000000	toeplitz
0.0000000000	wilson
0.0000000000	singleton
0.0000000000	guaranteeing
0.0000000000	320
0.0000000000	3rd
0.0000000000	trips
0.0000000000	trw
0.0000000000	clamping
0.0000000000	dispatch
0.0000000000	happen
0.0000000000	destination
0.0000000000	taxi
0.0000000000	parameterizing
0.0000000000	arms
0.0000000000	enumerating
0.0000000000	0.74
0.0000000000	bivariate
0.0000000000	loops
0.0000000000	altitude
0.0000000000	directionality
0.0000000000	chalearn
0.0000000000	semiparametric
0.0000000000	crm
0.0000000000	functionals
0.0000000000	informations
0.0000000000	swap
0.0000000000	precludes
0.0000000000	pursued
0.0000000000	bns
0.0000000000	blanket
0.0000000000	formula
0.0000000000	cvar
0.0000000000	climbing
0.0000000000	bo
0.0000000000	admissible
0.0000000000	quantile
0.0000000000	monotone
0.0000000000	extrapolation
0.0000000000	cma
0.0000000000	mu
0.0000000000	bernoulli
0.0000000000	deleted
0.0000000000	turbulence
0.0000000000	overarching
0.0000000000	igo
0.0000000000	74
0.0000000000	smc
0.0000000000	sutton
0.0000000000	oxygen
0.0000000000	encapsulating
0.0000000000	labour
0.0000000000	generics
0.0000000000	wind
0.0000000000	anonymized
0.0000000000	cps
0.0000000000	hiv
0.0000000000	moved
0.0000000000	visited
0.0000000000	cpd
0.0000000000	flaw
0.0000000000	hip
0.0000000000	divergent
0.0000000000	determinants
0.0000000000	hub
0.0000000000	pitfalls
0.0000000000	judgement
0.0000000000	money
0.0000000000	posted
0.0000000000	crowds
0.0000000000	substantiate
0.0000000000	bandits
0.0000000000	10000
0.0000000000	hampers
0.0000000000	payments
0.0000000000	clicks
0.0000000000	lend
0.0000000000	solar
0.0000000000	flare
0.0000000000	di
0.0000000000	rkhss
0.0000000000	undertaking
0.0000000000	hypothesise
0.0000000000	undergoing
0.0000000000	subsystems
0.0000000000	regularity
0.0000000000	compiling
0.0000000000	treewidth
0.0000000000	armed
0.0000000000	medication
0.0000000000	reaction
0.0000000000	emrs
0.0000000000	emr
0.0000000000	priority
0.0000000000	send
0.0000000000	mallows
0.0000000000	inspire
0.0000000000	transitivity
0.0000000000	graphoid
0.0000000000	import
0.0000000000	polytree
0.0000000000	inapplicable
0.0000000000	pearl
0.0000000000	spirtes
0.0000000000	independencies
0.0000000000	conveying
0.0000000000	repulsive
0.0000000000	dpp
0.0000000000	favorite
0.0000000000	dpps
0.0000000000	determinantal
0.0000000000	factorial
0.0000000000	practitioner
0.0000000000	guidelines
0.0000000000	spn
0.0000000000	ascending
0.0000000000	har
0.0000000000	psl
0.0000000000	mrfs
0.0000000000	hl
0.0000000000	formalisms
0.0000000000	elicitation
0.0000000000	dag
0.0000000000	inequalities
0.0000000000	agreements
0.0000000000	seriation
0.0000000000	gabor
0.0000000000	prospects
0.0000000000	multivalued
0.0000000000	edml
0.0000000000	brl
0.0000000000	parents
0.0000000000	unreasonable
0.0000000000	1999
0.0000000000	kd
0.0000000000	accept
0.0000000000	memberships
0.0000000000	peripheral
0.0000000000	reliant
0.0000000000	accomplishing
0.0000000000	helicopter
0.0000000000	l0
0.0000000000	fare
0.0000000000	se
0.0000000000	inhibitory
0.0000000000	excitatory
0.0000000000	balances
0.0000000000	coalitions
0.0000000000	draws
0.0000000000	grades
0.0000000000	conjectures
0.0000000000	blurred
0.0000000000	astronomical
0.0000000000	cahn
0.0000000000	allen
0.0000000000	terminal
0.0000000000	regularised
0.0000000000	inhibition
0.0000000000	excitation
0.0000000000	charts
0.0000000000	loyalty
0.0000000000	regressors
0.0000000000	byzantine
0.0000000000	retailer
0.0000000000	unusual
0.0000000000	logistics
0.0000000000	fairness
0.0000000000	retrieves
0.0000000000	128
0.0000000000	practiced
0.0000000000	willing
0.0000000000	distributing
0.0000000000	reuses
0.0000000000	submodels
0.0000000000	decouple
0.0000000000	javascript
0.0000000000	browsers
0.0000000000	technological
0.0000000000	brownian
0.0000000000	bellman
0.0000000000	jacobi
0.0000000000	hamilton
0.0000000000	sheer
0.0000000000	minimizations
0.0000000000	transaction
0.0000000000	assets
0.0000000000	valuation
0.0000000000	varepsilon
0.0000000000	astronomy
0.0000000000	centralized
0.0000000000	climate
0.0000000000	thermal
0.0000000000	envisioned
0.0000000000	passenger
0.0000000000	aside
0.0000000000	radius
0.0000000000	qubit
0.0000000000	injury
0.0000000000	emulated
0.0000000000	anticipated
0.0000000000	realisation
0.0000000000	compensatory
0.0000000000	injuries
0.0000000000	reject
0.0000000000	transverse
0.0000000000	layouts
0.0000000000	acid
0.0000000000	crossover
0.0000000000	assimilate
0.0000000000	staple
0.0000000000	warped
0.0000000000	remarks
0.0000000000	pn
0.0000000000	drnn
0.0000000000	precursor
0.0000000000	airline
0.0000000000	0.96
0.0000000000	0.91
0.0000000000	0.88
0.0000000000	incidents
0.0000000000	aviation
0.0000000000	incidence
0.0000000000	connectomics
0.0000000000	submanifold
0.0000000000	achievement
0.0000000000	fastest
0.0000000000	watch
0.0000000000	regressing
0.0000000000	rd
0.0000000000	inpainting
0.0000000000	localisation
0.0000000000	sfa
0.0000000000	slam
0.0000000000	odometry
0.0000000000	stereopsis
0.0000000000	underpinnings
0.0000000000	vasculature
0.0000000000	perfusion
0.0000000000	angiography
0.0000000000	hebb
0.0000000000	extremal
0.0000000000	existed
0.0000000000	tn
0.0000000000	accumulating
0.0000000000	dvs
0.0000000000	elderly
0.0000000000	clothing
0.0000000000	ethical
0.0000000000	raised
0.0000000000	ablative
0.0000000000	pet
0.0000000000	metabolism
0.0000000000	dermoscopy
0.0000000000	corrective
0.0000000000	histogram
0.0000000000	gathers
0.0000000000	responsive
0.0000000000	coexist
0.0000000000	anatomically
0.0000000000	portraits
0.0000000000	younger
0.0000000000	lighter
0.0000000000	rpca
0.0000000000	id
0.0000000000	persons
0.0000000000	microaneurysms
0.0000000000	0.01
0.0000000000	casual
0.0000000000	decisive
0.0000000000	fundus
0.0000000000	microaneurysm
0.0000000000	obscured
0.0000000000	renderer
0.0000000000	magnification
0.0000000000	elegance
0.0000000000	vivid
0.0000000000	betting
0.0000000000	proprioceptive
0.0000000000	stackgan
0.0000000000	denoted
0.0000000000	fat
0.0000000000	irma
0.0000000000	zernike
0.0000000000	borders
0.0000000000	fatal
0.0000000000	ucf101
0.0000000000	ntu
0.0000000000	hmdb51
0.0000000000	logitboost
0.0000000000	baxter
0.0000000000	vis
0.0000000000	revolutionary
0.0000000000	economics
0.0000000000	20th
0.0000000000	19th
0.0000000000	alerts
0.0000000000	poles
0.0000000000	philosophical
0.0000000000	incident
0.0000000000	se3
0.0000000000	behaves
0.0000000000	reflectivity
0.0000000000	splitter
0.0000000000	photonic
0.0000000000	markets
0.0000000000	im
0.0000000000	unaffected
0.0000000000	negatives
0.0000000000	modulating
0.0000000000	humanities
0.0000000000	graphemes
0.0000000000	archaeological
0.0000000000	1982
0.0000000000	indus
0.0000000000	2016a
0.0000000000	mouth
0.0000000000	scn
0.0000000000	enlarge
0.0000000000	accounting
0.0000000000	insufficiently
0.0000000000	cer
0.0000000000	0.83
0.0000000000	marker
0.0000000000	openly
0.0000000000	lipreading
0.0000000000	continuity
0.0000000000	capital
0.0000000000	provenance
0.0000000000	referential
0.0000000000	attentions
0.0000000000	sse
0.0000000000	trigrams
0.0000000000	birds
0.0000000000	cu
0.0000000000	rkhs
0.0000000000	representer
0.0000000000	med
0.0000000000	trecvid
0.0000000000	manifested
0.0000000000	subtleties
0.0000000000	imperative
0.0000000000	hypernym
0.0000000000	hypernymy
0.0000000000	multiview
0.0000000000	tall
0.0000000000	mscoco
0.0000000000	visemes
0.0000000000	viseme
0.0000000000	korean
0.0000000000	wearing
0.0000000000	iqa
0.0000000000	fm
0.0000000000	prepositional
0.0000000000	fragment
0.0000000000	routine
0.0000000000	suggestive
0.0000000000	concomitant
0.0000000000	excluded
0.0000000000	interventional
0.0000000000	eligibility
0.0000000000	sre
0.0000000000	precisions
0.0000000000	senseval
0.0000000000	wsd
0.0000000000	votes
0.0000000000	nuances
0.0000000000	opposition
0.0000000000	opposites
0.0000000000	polar
0.0000000000	emissions
0.0000000000	staff
0.0000000000	emitted
0.0000000000	decline
0.0000000000	aging
0.0000000000	mci
0.0000000000	aggregates
0.0000000000	impairment
0.0000000000	experiencing
0.0000000000	svi
0.0000000000	negations
0.0000000000	persona
0.0000000000	journeys
0.0000000000	crisis
0.0000000000	cb
0.0000000000	hit
0.0000000000	usable
0.0000000000	arcs
0.0000000000	trigonometric
0.0000000000	dsl
0.0000000000	transformers
0.0000000000	repetitive
0.0000000000	mahalanobis
0.0000000000	bell
0.0000000000	reweighted
0.0000000000	resilience
0.0000000000	possessed
0.0000000000	superb
0.0000000000	preparing
0.0000000000	dialects
0.0000000000	1991
0.0000000000	irish
0.0000000000	tradition
0.0000000000	invokes
0.0000000000	600
0.0000000000	probabilistically
0.0000000000	wikidata
0.0000000000	seasons
0.0000000000	purchase
0.0000000000	affiliation
0.0000000000	propagates
0.0000000000	lem
0.0000000000	prob
0.0000000000	doc
0.0000000000	ergodicity
0.0000000000	richly
0.0000000000	retrofitting
0.0000000000	sparsify
0.0000000000	contradicts
0.0000000000	averse
0.0000000000	harnessed
0.0000000000	facility
0.0000000000	title
0.0000000000	titles
0.0000000000	unfamiliar
0.0000000000	pertinent
0.0000000000	sam
0.0000000000	pressing
0.0000000000	instantaneous
0.0000000000	jaccard
0.0000000000	fallacy
0.0000000000	eases
0.0000000000	spot
0.0000000000	slda
0.0000000000	declared
0.0000000000	dynet
0.0000000000	toolkits
0.0000000000	verifying
0.0000000000	tau
0.0000000000	tells
0.0000000000	exponentiated
0.0000000000	hadoop
0.0000000000	standards
0.0000000000	valence
0.0000000000	cognates
0.0000000000	reranking
0.0000000000	variates
0.0000000000	lifting
0.0000000000	pronoun
0.0000000000	discriminated
0.0000000000	synsets
0.0000000000	persian
0.0000000000	discern
0.0000000000	exercise
0.0000000000	2001
0.0000000000	basics
0.0000000000	knows
0.0000000000	definitive
0.0000000000	allocated
0.0000000000	prices
0.0000000000	plates
0.0000000000	societies
0.0000000000	dividing
0.0000000000	plate
0.0000000000	price
0.0000000000	noticeably
0.0000000000	1984
0.0000000000	textbf
0.0000000000	scored
0.0000000000	spearman
0.0000000000	mos
0.0000000000	raters
0.0000000000	tts
0.0000000000	intrusive
0.0000000000	cc
0.0000000000	ranks
0.0000000000	streamlined
0.0000000000	va
0.0000000000	unsatisfactory
0.0000000000	outgoing
0.0000000000	talks
0.0000000000	glasso
0.0000000000	grassmannian
0.0000000000	inefficiencies
0.0000000000	intersect
0.0000000000	transformational
0.0000000000	mod
0.0000000000	cal
0.0000000000	lsd
0.0000000000	initialisation
0.0000000000	compactly
0.0000000000	yor
0.0000000000	factorisation
0.0000000000	personalised
0.0000000000	compounding
0.0000000000	moocs
0.0000000000	marriage
0.0000000000	equivalences
0.0000000000	ary
0.0000000000	informal
0.0000000000	chart
0.0000000000	diagnosing
0.0000000000	anchored
0.0000000000	interconnected
0.0000000000	initiate
0.0000000000	understandable
0.0000000000	revolutionize
0.0000000000	stretch
0.0000000000	cohort
0.0000000000	interpolated
0.0000000000	trf
0.0000000000	conditionals
0.0000000000	elegantly
0.0000000000	downside
0.0000000000	percolation
0.0000000000	lemma
0.0000000000	taxonomies
0.0000000000	trace
0.0000000000	jeffreys
0.0000000000	zhang
0.0000000000	huber
0.0000000000	analogue
0.0000000000	arora
0.0000000000	discourses
0.0000000000	superposition
0.0000000000	reside
0.0000000000	polysemous
0.0000000000	polysemy
0.0000000000	citizens
0.0000000000	cbow
0.0000000000	outbreaks
0.0000000000	foreground
0.0000000000	generalising
0.0000000000	gn
0.0000000000	reconciling
0.0000000000	occurence
0.0000000000	command
0.0000000000	emission
0.0000000000	blockwise
0.0000000000	submatrix
0.0000000000	suitably
0.0000000000	hull
0.0000000000	svd
0.0000000000	mf
0.0000000000	semidefinite
0.0000000000	mapreduce
0.0000000000	sublinear
0.0000000000	lsh
0.0000000000	unnormalized
0.0000000000	deviating
0.0000000000	successively
0.0000000000	sp
0.0000000000	publishing
0.0000000000	stopwords
0.0000000000	factorizing
0.0000000000	sgns
0.0000000000	federal
0.0000000000	angry
0.0000000000	hawkes
0.0000000000	suffix
0.0000000000	digitized
0.0000000000	print
0.0000000000	chamber
0.0000000000	returns
0.0000000000	cheaply
0.0000000000	recovers
0.0000000000	conservative
0.0000000000	pl
0.0000000000	bionlp
0.0000000000	explainability
0.0000000000	restricting
0.0000000000	collapsing
0.0000000000	polya
0.0000000000	canada
0.0000000000	indifference
0.0000000000	deduced
0.0000000000	tracing
0.0000000000	competitions
0.0000000000	italian
0.0000000000	subsampling
0.0000000000	citations
0.0000000000	clips
0.0000000000	chi
0.0000000000	bethe
0.0000000000	replicable
0.0000000000	1993
0.0000000000	42
0.0000000000	urdu
0.0000000000	democracy
0.0000000000	dispersed
0.0000000000	pmi
0.0000000000	grafting
0.0000000000	enriched
0.0000000000	reweighting
0.0000000000	holder
0.0000000000	mn
0.0000000000	summer
0.0000000000	excellence
0.0000000000	hopkins
0.0000000000	week
0.0000000000	dbscan
0.0000000000	extraneous
0.0000000000	mg
0.0000000000	cutoff
0.0000000000	jeffrey
0.0000000000	presentation
0.0000000000	dispersion
0.0000000000	mikolov
0.0000000000	goodness
0.0000000000	disappear
0.0000000000	email
0.0000000000	conflicts
0.0000000000	naming
0.0000000000	hypertext
0.0000000000	disordered
0.0000000000	grain
0.0000000000	von
0.0000000000	asymptotics
0.0000000000	stylometric
0.0000000000	entropies
0.0000000000	pairing
0.0000000000	sink
0.0000000000	stand
0.0000000000	ap
0.0000000000	summarising
0.0000000000	07
0.0000000000	duc
0.0000000000	yahoo
0.0000000000	shell
0.0000000000	shells
0.0000000000	blog
0.0000000000	incorporation
0.0000000000	granularities
0.0000000000	censored
0.0000000000	loopy
0.0000000000	marginals
0.0000000000	ignoring
0.0000000000	resides
0.0000000000	phrasal
0.0000000000	mentions
0.0000000000	considerations
0.0000000000	supervisions
0.0000000000	adr
0.0000000000	adrs
0.0000000000	kl
0.0000000000	transcripts
0.0000000000	drugs
0.0000000000	ship
0.0000000000	mood
0.0000000000	autoencoding
0.0000000000	substitution
0.0000000000	sibling
0.0000000000	uas
0.0000000000	rasa
0.0000000000	regulated
0.0000000000	entail
0.0000000000	rhythm
0.0000000000	poems
0.0000000000	theme
0.0000000000	favoring
0.0000000000	specifies
0.0000000000	differentiate
0.0000000000	hallmark
0.0000000000	poetry
0.0000000000	thematic
0.0000000000	hedges
0.0000000000	interruptions
0.0000000000	triangulation
0.0000000000	diet
0.0000000000	reply
0.0000000000	elliptical
0.0000000000	ds
0.0000000000	pronunciations
0.0000000000	kg
0.0000000000	rn
0.0000000000	unfeasible
0.0000000000	indexes
0.0000000000	signaling
0.0000000000	investment
0.0000000000	advertisers
0.0000000000	ads
0.0000000000	sale
0.0000000000	june
0.0000000000	advertising
0.0000000000	rtb
0.0000000000	profits
0.0000000000	auction
0.0000000000	auctions
0.0000000000	bidding
0.0000000000	mismatched
0.0000000000	narrowing
0.0000000000	factorized
0.0000000000	sst
0.0000000000	neighborhoods
0.0000000000	nips
0.0000000000	union
0.0000000000	mrr
0.0000000000	bar
0.0000000000	fr
0.0000000000	en
0.0000000000	filtered
0.0000000000	song
0.0000000000	stick
0.0000000000	derivations
0.0000000000	stamps
0.0000000000	scaffolding
0.0000000000	readable
0.0000000000	went
0.0000000000	rationales
0.0000000000	formidable
0.0000000000	fb15k
0.0000000000	annotator
0.0000000000	incompleteness
0.0000000000	sarcastic
0.0000000000	bypassing
0.0000000000	commute
0.0000000000	flight
0.0000000000	hotel
0.0000000000	reserve
0.0000000000	sarcasm
0.0000000000	plateau
0.0000000000	desiderata
0.0000000000	supportive
0.0000000000	ethics
0.0000000000	sociology
0.0000000000	forum
0.0000000000	forums
0.0000000000	factual
0.0000000000	tastes
0.0000000000	quo
0.0000000000	insects
0.0000000000	historic
0.0000000000	coffee
0.0000000000	characterizes
0.0000000000	unfairness
0.0000000000	sessions
0.0000000000	personalizing
0.0000000000	waveform
0.0000000000	librispeech
0.0000000000	alike
0.0000000000	profile
0.0000000000	spectacular
0.0000000000	escapes
0.0000000000	kbp
0.0000000000	infant
0.0000000000	roadmap
0.0000000000	operationalize
0.0000000000	affirmative
0.0000000000	lambada
0.0000000000	tourist
0.0000000000	threads
0.0000000000	reddit
0.0000000000	0.67
0.0000000000	0.52
0.0000000000	origins
0.0000000000	commentary
0.0000000000	pilot
0.0000000000	propositions
0.0000000000	harvesting
0.0000000000	homophily
0.0000000000	fan
0.0000000000	york
0.0000000000	counterfactual
0.0000000000	vote
0.0000000000	attitudes
0.0000000000	friends
0.0000000000	authored
0.0000000000	naively
0.0000000000	court
0.0000000000	supreme
0.0000000000	authoring
0.0000000000	contiguous
0.0000000000	lisp
0.0000000000	supplied
0.0000000000	formalise
0.0000000000	synonym
0.0000000000	unigrams
0.0000000000	met
0.0000000000	fcm
0.0000000000	refinements
0.0000000000	speculate
0.0000000000	asymptotically
0.0000000000	tailor
0.0000000000	framed
0.0000000000	72
0.0000000000	metaphors
0.0000000000	twenty
0.0000000000	lra
0.0000000000	cnl
0.0000000000	framenet
0.0000000000	appearing
0.0000000000	accidents
0.0000000000	inspecting
0.0000000000	modifier
0.0000000000	sat
0.0000000000	pertinence
0.0000000000	putative
0.0000000000	verbal
0.0000000000	pi
0.0000000000	pm
0.0000000000	unigram
0.0000000000	unspecified
0.0000000000	mines
0.0000000000	bigrams
0.0000000000	rollouts
0.0000000000	infrequent
0.0000000000	eat
0.0000000000	paraphrases
0.0000000000	notorious
0.0000000000	cooccurrence
0.0000000000	vietnamese
0.0000000000	mab
0.0000000000	interactively
0.0000000000	denotations
0.0000000000	verb
0.0000000000	effortlessly
0.0000000000	minimising
0.0000000000	tutoring
0.0000000000	tutor
0.0000000000	collaborations
0.0000000000	ex
0.0000000000	laying
0.0000000000	nationality
0.0000000000	wording
0.0000000000	she
0.0000000000	owners
0.0000000000	mnih
0.0000000000	emoticons
0.0000000000	dirty
0.0000000000	blank
0.0000000000	offices
0.0000000000	homes
0.0000000000	portuguese
0.0000000000	emojis
0.0000000000	graphic
0.0000000000	utilised
0.0000000000	dst
0.0000000000	specialised
0.0000000000	evidenced
0.0000000000	attract
0.0000000000	minimax
0.0000000000	trait
0.0000000000	specialisation
0.0000000000	chronological
0.0000000000	resolved
0.0000000000	ceiling
0.0000000000	typological
0.0000000000	crosslingual
0.0000000000	instructors
0.0000000000	passages
0.0000000000	students
0.0000000000	personalities
0.0000000000	tense
0.0000000000	typology
0.0000000000	posts
0.0000000000	examinations
0.0000000000	marketing
0.0000000000	race
0.0000000000	occupations
0.0000000000	webpages
0.0000000000	occupation
0.0000000000	says
0.0000000000	situated
0.0000000000	deployments
0.0000000000	partners
0.0000000000	guess
0.0000000000	reformulating
0.0000000000	behalf
0.0000000000	programmatic
0.0000000000	definite
0.0000000000	came
0.0000000000	coreference
0.0000000000	editions
0.0000000000	polarities
0.0000000000	posit
0.0000000000	complementing
0.0000000000	happy
0.0000000000	instructional
0.0000000000	endogenous
0.0000000000	noteworthy
0.0000000000	58
0.0000000000	folds
0.0000000000	pro
0.0000000000	cohorts
0.0000000000	simulators
0.0000000000	administration
0.0000000000	formalization
0.0000000000	darpa
0.0000000000	annotating
0.0000000000	vsms
0.0000000000	formalized
0.0000000000	sts
0.0000000000	fa
0.0000000000	representatives
0.0000000000	civilization
0.0000000000	buy
0.0000000000	entails
0.0000000000	pets
0.0000000000	interprets
0.0000000000	rmse
0.0000000000	synonymous
0.0000000000	atmosphere
0.0000000000	preposition
0.0000000000	pp
0.0000000000	mason
0.0000000000	wood
0.0000000000	carpenter
0.0000000000	conveyed
0.0000000000	blessing
0.0000000000	md
0.0000000000	vad
0.0000000000	hosted
0.0000000000	associating
0.0000000000	marf
0.0000000000	tough
0.0000000000	reinforce
0.0000000000	recognizes
0.0000000000	treats
0.0000000000	abstracting
0.0000000000	localizing
0.0000000000	abbreviated
0.0000000000	fulfilling
0.0000000000	succinct
0.0000000000	attempted
0.0000000000	insufficiency
0.0000000000	whatever
0.0000000000	sine
0.0000000000	printed
0.0000000000	pivot
0.0000000000	textural
0.0000000000	tie
0.0000000000	emotional
0.0000000000	medieval
0.0000000000	slavic
0.0000000000	south
0.0000000000	sentential
0.0000000000	figurative
0.0000000000	adverbs
0.0000000000	adjectives
0.0000000000	81
0.0000000000	planned
0.0000000000	thirteen
0.0000000000	intensively
0.0000000000	selections
0.0000000000	imitating
0.0000000000	fractional
0.0000000000	summing
0.0000000000	interests
0.0000000000	storyline
0.0000000000	overload
0.0000000000	organize
0.0000000000	succinctly
0.0000000000	continuing
0.0000000000	fuses
0.0000000000	fleet
0.0000000000	bot
0.0000000000	counterintuitive
0.0000000000	rounds
0.0000000000	secret
0.0000000000	guesses
0.0000000000	committed
0.0000000000	episode
0.0000000000	differentiability
0.0000000000	samplers
0.0000000000	inevitable
0.0000000000	gs
0.0000000000	csi
0.0000000000	television
0.0000000000	27
0.0000000000	crime
0.0000000000	informativeness
0.0000000000	familiarity
0.0000000000	dutch
0.0000000000	recurring
0.0000000000	puns
0.0000000000	comment
0.0000000000	cardinalities
0.0000000000	numerosity
0.0000000000	stimulate
0.0000000000	lay
0.0000000000	formalisation
0.0000000000	fish
0.0000000000	minds
0.0000000000	experimenter
0.0000000000	linguistics
0.0000000000	tendencies
0.0000000000	productive
0.0000000000	lives
0.0000000000	gumbel
0.0000000000	confined
0.0000000000	intents
0.0000000000	beliefs
0.0000000000	groundtruth
0.0000000000	meaningless
0.0000000000	capitalizing
0.0000000000	underlie
0.0000000000	continuum
0.0000000000	quantifiers
0.0000000000	sounding
0.0000000000	engagement
0.0000000000	dbs
0.0000000000	bs
0.0000000000	garnered
0.0000000000	paying
0.0000000000	disagreement
0.0000000000	unavoidable
0.0000000000	pragmatics
0.0000000000	depicts
0.0000000000	haptic
0.0000000000	tasked
0.0000000000	literal
0.0000000000	communications
0.0000000000	ser
0.0000000000	flickr8k
0.0000000000	ontological
0.0000000000	detections
0.0000000000	geography
0.0000000000	schemata
0.0000000000	pertaining
0.0000000000	clp
0.0000000000	visuo
0.0000000000	talking
0.0000000000	postulate
0.0000000000	opaque
0.0000000000	ambiguities
0.0000000000	garden
0.0000000000	justifying
0.0000000000	locomotive
0.0000000000	programmed
0.0000000000	seeding
0.0000000000	granular
0.0000000000	graphlets
0.0000000000	substrates
0.0000000000	systemic
0.0000000000	automata
0.0000000000	classically
0.0000000000	british
0.0000000000	distress
0.0000000000	skim
0.0000000000	exams
0.0000000000	exam
0.0000000000	2.3
0.0000000000	countries
0.0000000000	originality
0.0000000000	pubmed
0.0000000000	political
0.0000000000	foreign
0.0000000000	1970
0.0000000000	country
0.0000000000	schemas
0.0000000000	governments
0.0000000000	calculus
0.0000000000	predicate
0.0000000000	speeches
0.0000000000	politics
0.0000000000	patent
0.0000000000	u.s
0.0000000000	nations
0.0000000000	informally
0.0000000000	minimalistic
0.0000000000	lemmatization
0.0000000000	influences
0.0000000000	controversial
0.0000000000	keyphrases
0.0000000000	kbc
0.0000000000	upcoming
0.0000000000	keyphrase
0.0000000000	psycholinguistics
0.0000000000	export
0.0000000000	boards
0.0000000000	wikis
0.0000000000	blogs
0.0000000000	opinions
0.0000000000	verbs
0.0000000000	43
0.0000000000	psychologically
0.0000000000	cohen
0.0000000000	dozen
0.0000000000	editors
0.0000000000	submit
0.0000000000	weekly
0.0000000000	contingency
0.0000000000	prevalence
0.0000000000	borrowed
0.0000000000	cartoon
0.0000000000	humor
0.0000000000	traversing
0.0000000000	rectify
0.0000000000	pr2
0.0000000000	session
0.0000000000	planners
0.0000000000	military
0.0000000000	artefacts
0.0000000000	registering
0.0000000000	displayed
0.0000000000	meetings
0.0000000000	unscented
0.0000000000	linearization
0.0000000000	hurdles
0.0000000000	concentrated
0.0000000000	inadequate
0.0000000000	miou
0.0000000000	alternation
0.0000000000	scanned
0.0000000000	workhorse
0.0000000000	4.0
0.0000000000	neglect
0.0000000000	skew
0.0000000000	aberration
0.0000000000	chromatic
0.0000000000	projective
0.0000000000	reconfigurable
0.0000000000	chose
0.0000000000	0.6
0.0000000000	swish
0.0000000000	attenuation
0.0000000000	pleasing
0.0000000000	aesthetically
0.0000000000	incompatible
0.0000000000	duplication
0.0000000000	kt
0.0000000000	proximal
0.0000000000	5x
0.0000000000	10x
0.0000000000	contaminated
0.0000000000	pages
0.0000000000	incredible
0.0000000000	holographic
0.0000000000	resume
0.0000000000	frequentist
0.0000000000	rois
0.0000000000	slim
0.0000000000	surgeon
0.0000000000	quantiles
0.0000000000	specificity
0.0000000000	stagewise
0.0000000000	fractal
0.0000000000	radiologist
0.0000000000	cancerous
0.0000000000	encapsulate
0.0000000000	women
0.0000000000	diagnosed
0.0000000000	angles
0.0000000000	ecc
0.0000000000	viz
0.0000000000	tions
0.0000000000	heterogeneity
0.0000000000	optionally
0.0000000000	pace
0.0000000000	backpropagating
0.0000000000	keen
0.0000000000	visualized
0.0000000000	ram
0.0000000000	modulo
0.0000000000	tv
0.0000000000	skewed
0.0000000000	quad
0.0000000000	indicated
0.0000000000	promises
0.0000000000	eog
0.0000000000	comfortable
0.0000000000	placements
0.0000000000	electrode
0.0000000000	facilities
0.0000000000	tone
0.0000000000	pathologies
0.0000000000	ldr
0.0000000000	electrodes
0.0000000000	hdr
0.0000000000	clinician
0.0000000000	inspected
0.0000000000	room
0.0000000000	degeneration
0.0000000000	macular
0.0000000000	erroneously
0.0000000000	volumetric
0.0000000000	oct
0.0000000000	amd
0.0000000000	nba
0.0000000000	pointers
0.0000000000	nucleotide
0.0000000000	basketball
0.0000000000	collaborate
0.0000000000	dashboard
0.0000000000	motif
0.0000000000	centrality
0.0000000000	betweenness
0.0000000000	connectome
0.0000000000	modifies
0.0000000000	ridge
0.0000000000	anatomic
0.0000000000	subband
0.0000000000	subbands
0.0000000000	viewing
0.0000000000	fabric
0.0000000000	deficit
0.0000000000	spp
0.0000000000	altered
0.0000000000	tip
0.0000000000	disregarding
0.0000000000	paramount
0.0000000000	excerpts
0.0000000000	took
0.0000000000	overfeat
0.0000000000	instruments
0.0000000000	managing
0.0000000000	elu
0.0000000000	instrument
0.0000000000	thin
0.0000000000	mislabeled
0.0000000000	pillars
0.0000000000	deliberately
0.0000000000	exemplified
0.0000000000	became
0.0000000000	newer
0.0000000000	abs
0.0000000000	older
0.0000000000	ros
0.0000000000	saccadic
0.0000000000	walkers
0.0000000000	subnet
0.0000000000	inherit
0.0000000000	morphing
0.0000000000	morph
0.0000000000	wheelchair
0.0000000000	morphism
0.0000000000	equalization
0.0000000000	wiring
0.0000000000	typicality
0.0000000000	novelties
0.0000000000	chair
0.0000000000	intensities
0.0000000000	disfa
0.0000000000	spontaneous
0.0000000000	textured
0.0000000000	compositing
0.0000000000	tesla
0.0000000000	pacs
0.0000000000	archiving
0.0000000000	axial
0.0000000000	exceed
0.0000000000	twist
0.0000000000	beforehand
0.0000000000	suits
0.0000000000	extinction
0.0000000000	planetary
0.0000000000	stars
0.0000000000	grains
0.0000000000	bearing
0.0000000000	absorption
0.0000000000	accumulate
0.0000000000	volunteers
0.0000000000	1500
0.0000000000	passively
0.0000000000	inertial
0.0000000000	pq
0.0000000000	sixty
0.0000000000	3.2
0.0000000000	47
0.0000000000	peer
0.0000000000	realistically
0.0000000000	revolutionized
0.0000000000	trans
0.0000000000	exactness
0.0000000000	commutative
0.0000000000	rotating
0.0000000000	scanning
0.0000000000	operational
0.0000000000	brand
0.0000000000	irreducible
0.0000000000	elementary
0.0000000000	formations
0.0000000000	ace
0.0000000000	converged
0.0000000000	gentle
0.0000000000	iterating
0.0000000000	smile
0.0000000000	forming
0.0000000000	stochasticnet
0.0000000000	lsp
0.0000000000	mpii
0.0000000000	imperfect
0.0000000000	encompass
0.0000000000	expands
0.0000000000	ness
0.0000000000	lsun
0.0000000000	publication
0.0000000000	lbp
0.0000000000	hog
0.0000000000	java
0.0000000000	noting
0.0000000000	positioned
0.0000000000	5.5
0.0000000000	1m
0.0000000000	transcribing
0.0000000000	svdd
0.0000000000	pascal3d
0.0000000000	energies
0.0000000000	weakening
0.0000000000	mil
0.0000000000	glimpses
0.0000000000	moderately
0.0000000000	misalignment
0.0000000000	registered
0.0000000000	ba
0.0000000000	lidar
0.0000000000	persistence
0.0000000000	hmc
0.0000000000	unambiguous
0.0000000000	chances
0.0000000000	prohibits
0.0000000000	cae
0.0000000000	repeatedly
0.0000000000	attacked
0.0000000000	exception
0.0000000000	corrupting
0.0000000000	acc
0.0000000000	tabulated
0.0000000000	briefly
0.0000000000	progressed
0.0000000000	interpolate
0.0000000000	clarifying
0.0000000000	stitching
0.0000000000	neurophysiological
0.0000000000	chairs
0.0000000000	km
0.0000000000	predecessors
0.0000000000	intraclass
0.0000000000	downloaded
0.0000000000	tagged
0.0000000000	depicted
0.0000000000	executions
0.0000000000	noun
0.0000000000	adjective
0.0000000000	fps
0.0000000000	tm
0.0000000000	torch
0.0000000000	circles
0.0000000000	hd
0.0000000000	august
0.0000000000	lots
0.0000000000	parking
0.0000000000	harnesses
0.0000000000	historically
0.0000000000	artifact
0.0000000000	laplacian
0.0000000000	generalizations
0.0000000000	distinction
0.0000000000	awgn
0.0000000000	distinguishes
0.0000000000	pointwise
0.0000000000	approximator
0.0000000000	retrieving
0.0000000000	opportunity
0.0000000000	lloyd
0.0000000000	contributors
0.0000000000	berkeley
0.0000000000	seamless
0.0000000000	titan
0.0000000000	licensed
0.0000000000	writer
0.0000000000	bsd
0.0000000000	aerial
0.0000000000	highways
0.0000000000	markings
0.0000000000	lane
0.0000000000	roads
0.0000000000	eligible
0.0000000000	reproduction
0.0000000000	topographic
0.0000000000	trackers
0.0000000000	generically
0.0000000000	slowness
0.0000000000	mkl
0.0000000000	plugged
0.0000000000	graceful
0.0000000000	4x
0.0000000000	clutter
0.0000000000	weigh
0.0000000000	impacted
0.0000000000	overtraining
0.0000000000	inverted
0.0000000000	approx
0.0000000000	combinatorially
0.0000000000	functionalities
0.0000000000	abdomen
0.0000000000	sensitivities
0.0000000000	abdominal
0.0000000000	86
0.0000000000	exemplar
0.0000000000	resampling
0.0000000000	uneven
0.0000000000	voi
0.0000000000	harvest
0.0000000000	vol
0.0000000000	fp
0.0000000000	positives
0.0000000000	statistic
0.0000000000	grey
0.0000000000	thickness
0.0000000000	deformations
0.0000000000	ln
0.0000000000	discrepancies
0.0000000000	geographically
0.0000000000	brought
0.0000000000	thereof
0.0000000000	till
0.0000000000	lymph
0.0000000000	2.5d
0.0000000000	synchronous
0.0000000000	taught
0.0000000000	aggressive
0.0000000000	concurrency
0.0000000000	alarms
0.0000000000	optimizations
0.0000000000	served
0.0000000000	han
0.0000000000	defect
0.0000000000	tpu
0.0000000000	exponents
0.0000000000	lyapunov
0.0000000000	welch
0.0000000000	ziv
0.0000000000	permanent
0.0000000000	verifies
0.0000000000	lossy
0.0000000000	china
0.0000000000	noninvasive
0.0000000000	x1
0.0000000000	u
0.0000000000	dpn
0.0000000000	tongue
0.0000000000	prescription
0.0000000000	herbal
0.0000000000	malignant
0.0000000000	nodules
0.0000000000	lung
0.0000000000	neck
0.0000000000	prostate
0.0000000000	54
0.0000000000	institutional
0.0000000000	institution
0.0000000000	nodule
0.0000000000	pulmonary
0.0000000000	institutions
0.0000000000	deeplung
0.0000000000	uci
0.0000000000	organ
0.0000000000	standardization
0.0000000000	sota
0.0000000000	obey
0.0000000000	psf
0.0000000000	distracting
0.0000000000	downscaling
0.0000000000	pave
0.0000000000	leap
0.0000000000	streets
0.0000000000	outdoor
0.0000000000	urban
0.0000000000	scanners
0.0000000000	terrestrial
0.0000000000	stitch
0.0000000000	marl
0.0000000000	recursion
0.0000000000	terminating
0.0000000000	justified
0.0000000000	commonalities
0.0000000000	footnote
0.0000000000	ddsm
0.0000000000	inbreast
0.0000000000	mammogram
0.0000000000	6dof
0.0000000000	mammographic
0.0000000000	sift
0.0000000000	rectification
0.0000000000	apriori
0.0000000000	mammograms
0.0000000000	ilsvrc2012
0.0000000000	tackled
0.0000000000	conflicting
0.0000000000	intricate
0.0000000000	branch
0.0000000000	extraordinary
0.0000000000	adjacency
0.0000000000	download
0.0000000000	license
0.0000000000	mxnet
0.0000000000	closing
0.0000000000	breakthrough
0.0000000000	inherited
0.0000000000	submissions
0.0000000000	g
0.0000000000	backpropagated
0.0000000000	switch
0.0000000000	submanifolds
0.0000000000	flipping
0.0000000000	passes
0.0000000000	academia
0.0000000000	pyramid
0.0000000000	costing
0.0000000000	multigrid
0.0000000000	depthwise
0.0000000000	charades
0.0000000000	deluge
0.0000000000	splicing
0.0000000000	deformable
0.0000000000	tissue
0.0000000000	monolithic
0.0000000000	sintel
0.0000000000	adaboost
0.0000000000	trails
0.0000000000	hinge
0.0000000000	understandings
0.0000000000	caffenet
0.0000000000	tolerance
0.0000000000	trimming
0.0000000000	trimmed
0.0000000000	adder
0.0000000000	artistic
0.0000000000	artworks
0.0000000000	recasting
0.0000000000	untrained
0.0000000000	cameras
0.0000000000	smartphones
0.0000000000	1200
0.0000000000	complements
0.0000000000	contradictory
0.0000000000	vanish
0.0000000000	subtle
0.0000000000	shrinkage
0.0000000000	bifurcation
0.0000000000	manners
0.0000000000	vortex
0.0000000000	amplitude
0.0000000000	sustaining
0.0000000000	turbine
0.0000000000	gas
0.0000000000	air
0.0000000000	land
0.0000000000	deterioration
0.0000000000	font
0.0000000000	typography
0.0000000000	flame
0.0000000000	pheromone
0.0000000000	instabilities
0.0000000000	combustion
0.0000000000	22
0.0000000000	typographic
0.0000000000	trap
0.0000000000	moth
0.0000000000	landmarks
0.0000000000	aesthetics
0.0000000000	trustworthiness
0.0000000000	memorability
0.0000000000	unpooling
0.0000000000	jury
0.0000000000	elections
0.0000000000	presidential
0.0000000000	swiftly
0.0000000000	exhaustively
0.0000000000	un
0.0000000000	middlebury
0.0000000000	ill
0.0000000000	unbalanced
0.0000000000	personality
0.0000000000	26
0.0000000000	crop
0.0000000000	skipping
0.0000000000	jpeg
0.0000000000	bagging
0.0000000000	sent
0.0000000000	prevented
0.0000000000	codecs
0.0000000000	transmit
0.0000000000	elimination
0.0000000000	tri
0.0000000000	empower
0.0000000000	clairvoyant
0.0000000000	rm
0.0000000000	sun
0.0000000000	steganalysis
0.0000000000	upsampled
0.0000000000	vgg16
0.0000000000	topologically
0.0000000000	loose
0.0000000000	segnet
0.0000000000	specifics
0.0000000000	simd
0.0000000000	widths
0.0000000000	xeon
0.0000000000	sections
0.0000000000	concurrent
0.0000000000	wait
0.0000000000	sums
0.0000000000	misses
0.0000000000	attainable
0.0000000000	viewpoints
0.0000000000	violated
0.0000000000	stereo
0.0000000000	normalisation
0.0000000000	aids
0.0000000000	hearing
0.0000000000	mildly
0.0000000000	rises
0.0000000000	73
0.0000000000	fc
0.0000000000	webcam
0.0000000000	lagged
0.0000000000	allocate
0.0000000000	bucket
0.0000000000	hash
0.0000000000	dct
0.0000000000	everyone
0.0000000000	61
0.0000000000	hashed
0.0000000000	monotonically
0.0000000000	flower
0.0000000000	ucsd
0.0000000000	adverse
0.0000000000	accompany
0.0000000000	wild
0.0000000000	opt
0.0000000000	resorting
0.0000000000	bsds500
0.0000000000	densenet
0.0000000000	contour
0.0000000000	hole
0.0000000000	localize
0.0000000000	dcnns
0.0000000000	formats
0.0000000000	isolating
0.0000000000	observer
0.0000000000	discontinuity
0.0000000000	necessity
0.0000000000	bilateral
0.0000000000	enjoyed
0.0000000000	prototyping
0.0000000000	flickr
0.0000000000	mir
0.0000000000	exposes
0.0000000000	practise
0.0000000000	tolerate
0.0000000000	articulated
0.0000000000	viper
0.0000000000	binomial
0.0000000000	feret
0.0000000000	ar
0.0000000000	yale
0.0000000000	lfw
0.0000000000	copied
0.0000000000	multistage
0.0000000000	histograms
0.0000000000	lesser
0.0000000000	pcanet
0.0000000000	hardest
0.0000000000	unconstrained
0.0000000000	posing
0.0000000000	blue
0.0000000000	green
0.0000000000	red
0.0000000000	colour
0.0000000000	judiciously
0.0000000000	relighting
0.0000000000	downsampling
0.0000000000	remainder
0.0000000000	subjected
0.0000000000	branching
0.0000000000	branched
0.0000000000	regressor
0.0000000000	norb
0.0000000000	ucf
0.0000000000	percepts
0.0000000000	ns
0.0000000000	spend
0.0000000000	paragraphs
0.0000000000	cropped
0.0000000000	99.9
0.0000000000	necessitates
0.0000000000	tweaking
0.0000000000	reserved
0.0000000000	meticulous
0.0000000000	integers
0.0000000000	genre
0.0000000000	colorize
0.0000000000	possession
0.0000000000	recombine
0.0000000000	bytes
0.0000000000	diving
0.0000000000	ava
0.0000000000	naturalness
0.0000000000	velocities
0.0000000000	foveated
0.0000000000	workspace
0.0000000000	distorted
0.0000000000	beings
0.0000000000	acuity
0.0000000000	convenient
0.0000000000	kinect
0.0000000000	wasteful
0.0000000000	perceive
0.0000000000	aesthetic
0.0000000000	xnor
0.0000000000	finetuning
0.0000000000	adopting
0.0000000000	banks
0.0000000000	pcn
0.0000000000	manage
0.0000000000	voc2012
0.0000000000	voc2007
0.0000000000	instantiated
0.0000000000	house
0.0000000000	greedily
0.0000000000	0.99
0.0000000000	reporting
0.0000000000	laboratory
0.0000000000	oracles
0.0000000000	ge
0.0000000000	administrator
0.0000000000	dc
0.0000000000	dca
0.0000000000	fifteen
0.0000000000	ea
0.0000000000	gcn
0.0000000000	gcns
0.0000000000	citation
0.0000000000	intense
0.0000000000	gnns
0.0000000000	degradations
0.0000000000	departure
0.0000000000	envelope
0.0000000000	oc
0.0000000000	incurring
0.0000000000	budgets
0.0000000000	infection
0.0000000000	surgical
0.0000000000	citep
0.0000000000	populated
0.0000000000	metalearning
0.0000000000	transient
0.0000000000	alarm
0.0000000000	false
0.0000000000	denoise
0.0000000000	te
0.0000000000	intends
0.0000000000	consideration
0.0000000000	faults
0.0000000000	ed
0.0000000000	eigen
0.0000000000	commands
0.0000000000	fault
0.0000000000	thoughts
0.0000000000	mere
0.0000000000	bci
0.0000000000	scalp
0.0000000000	evoked
0.0000000000	p300
0.0000000000	evasion
0.0000000000	suites
0.0000000000	tactical
0.0000000000	cyber
0.0000000000	attributing
0.0000000000	apt
0.0000000000	nation
0.0000000000	accessed
0.0000000000	registry
0.0000000000	families
0.0000000000	signatures
0.0000000000	probably
0.0000000000	2008
0.0000000000	overheads
0.0000000000	played
0.0000000000	proceed
0.0000000000	organisms
0.0000000000	reconcile
0.0000000000	coevolution
0.0000000000	goo.gl
0.0000000000	realism
0.0000000000	amortized
0.0000000000	xi
0.0000000000	unrestricted
0.0000000000	hitherto
0.0000000000	undertake
0.0000000000	soundness
0.0000000000	violate
0.0000000000	restrictive
0.0000000000	originating
0.0000000000	preconditioned
0.0000000000	obeys
0.0000000000	marquardt
0.0000000000	levenberg
0.0000000000	mst
0.0000000000	transmissions
0.0000000000	threats
0.0000000000	crowded
0.0000000000	electromagnetic
0.0000000000	transmitter
0.0000000000	nin
0.0000000000	originated
0.0000000000	governing
0.0000000000	pdes
0.0000000000	pde
0.0000000000	narrow
0.0000000000	relax
0.0000000000	vectorial
0.0000000000	mts
0.0000000000	spns
0.0000000000	pairings
0.0000000000	ml
0.0000000000	continuation
0.0000000000	homotopy
0.0000000000	crowding
0.0000000000	quotient
0.0000000000	lexicase
0.0000000000	hyperbolic
0.0000000000	workloads
0.0000000000	percentile
0.0000000000	reviewing
0.0000000000	analysts
0.0000000000	anomalous
0.0000000000	prospective
0.0000000000	analyst
0.0000000000	organizations
0.0000000000	cybersecurity
0.0000000000	threat
0.0000000000	citet
0.0000000000	consumes
0.0000000000	bipolar
0.0000000000	shifting
0.0000000000	triggering
0.0000000000	gracefully
0.0000000000	interrupted
0.0000000000	steady
0.0000000000	fills
0.0000000000	teach
0.0000000000	lupi
0.0000000000	privileged
0.0000000000	likewise
0.0000000000	classroom
0.0000000000	expectations
0.0000000000	hz
0.0000000000	intriguingly
0.0000000000	79
0.0000000000	85
0.0000000000	dependences
0.0000000000	binarization
0.0000000000	codebook
0.0000000000	quantize
0.0000000000	uncompressed
0.0000000000	stone
0.0000000000	resistance
0.0000000000	excess
0.0000000000	expander
0.0000000000	attacking
0.0000000000	incorrectly
0.0000000000	paves
0.0000000000	ups
0.0000000000	bipartite
0.0000000000	fatigue
0.0000000000	coarser
0.0000000000	virtue
0.0000000000	poly
0.0000000000	remember
0.0000000000	polylog
0.0000000000	law
0.0000000000	digitally
0.0000000000	voltage
0.0000000000	cycles
0.0000000000	vivo
0.0000000000	saddles
0.0000000000	arrays
0.0000000000	unconditional
0.0000000000	crude
0.0000000000	stroke
0.0000000000	silhouette
0.0000000000	collects
0.0000000000	vibration
0.0000000000	wrapper
0.0000000000	survival
0.0000000000	denser
0.0000000000	vastly
0.0000000000	v3
0.0000000000	prognostic
0.0000000000	overlaps
0.0000000000	4000
0.0000000000	250
0.0000000000	shattering
0.0000000000	resistant
0.0000000000	teachers
0.0000000000	resemble
0.0000000000	mix
0.0000000000	inspires
0.0000000000	decays
0.0000000000	gist
0.0000000000	thorough
0.0000000000	ancient
0.0000000000	reuse
0.0000000000	randomised
0.0000000000	kde
0.0000000000	origin
0.0000000000	resolving
0.0000000000	outliers
0.0000000000	kpca
0.0000000000	tap
0.0000000000	concise
0.0000000000	dissimilar
0.0000000000	kernelized
0.0000000000	manns
0.0000000000	batched
0.0000000000	xgboost
0.0000000000	genetics
0.0000000000	invaluable
0.0000000000	gaining
0.0000000000	acceptable
0.0000000000	synergistic
0.0000000000	susceptible
0.0000000000	corroborate
0.0000000000	cam
0.0000000000	thompson
0.0000000000	stems
0.0000000000	accompanied
0.0000000000	proportionally
0.0000000000	offsets
0.0000000000	spiral
0.0000000000	optimizer
0.0000000000	retention
0.0000000000	cifar100
0.0000000000	strikingly
0.0000000000	alongside
0.0000000000	immense
0.0000000000	manifests
0.0000000000	expansions
0.0000000000	nonsmooth
0.0000000000	adam
0.0000000000	penalize
0.0000000000	drl
0.0000000000	infrequently
0.0000000000	shortcuts
0.0000000000	boosts
0.0000000000	plagued
0.0000000000	demystifying
0.0000000000	temporary
0.0000000000	payoffs
0.0000000000	diagnostics
0.0000000000	pricing
0.0000000000	cloud
0.0000000000	admits
0.0000000000	decompositions
0.0000000000	iot
0.0000000000	sought
0.0000000000	casting
0.0000000000	accelerators
0.0000000000	84
0.0000000000	uniqueness
0.0000000000	travel
0.0000000000	queue
0.0000000000	delays
0.0000000000	loads
0.0000000000	replication
0.0000000000	corrected
0.0000000000	grids
0.0000000000	mine
0.0000000000	diagrams
0.0000000000	sharper
0.0000000000	cube
0.0000000000	nice
0.0000000000	incoherence
0.0000000000	multiplied
0.0000000000	flattening
0.0000000000	prevalent
0.0000000000	subsumes
0.0000000000	loading
0.0000000000	meter
0.0000000000	electrical
0.0000000000	consumers
0.0000000000	renewable
0.0000000000	utilization
0.0000000000	handled
0.0000000000	irregularly
0.0000000000	physionet
0.0000000000	los
0.0000000000	picu
0.0000000000	pediatric
0.0000000000	missingness
0.0000000000	a.k.a
0.0000000000	noted
0.0000000000	oscillations
0.0000000000	damping
0.0000000000	quadrature
0.0000000000	rpu
0.0000000000	recruited
0.0000000000	universally
0.0000000000	amc
0.0000000000	interpolation
0.0000000000	spline
0.0000000000	cubic
0.0000000000	transposed
0.0000000000	resistive
0.0000000000	mri
0.0000000000	infomax
0.0000000000	asymptotic
0.0000000000	ongoing
0.0000000000	bss
0.0000000000	prominence
0.0000000000	categorizing
0.0000000000	svrg
0.0000000000	rewarded
0.0000000000	sustainability
0.0000000000	annealed
0.0000000000	dropouts
0.0000000000	noiseless
0.0000000000	saturating
0.0000000000	hide
0.0000000000	saturation
0.0000000000	eta
0.0000000000	routines
0.0000000000	oldest
0.0000000000	conversely
0.0000000000	giant
0.0000000000	mathrm
0.0000000000	complexities
0.0000000000	inequality
0.0000000000	frac
0.0000000000	eigenvector
0.0000000000	satisfying
0.0000000000	sustainable
0.0000000000	ldots
0.0000000000	riemannian
0.0000000000	algebraic
0.0000000000	nontrivial
0.0000000000	omega
0.0000000000	oja
0.0000000000	nesterov
0.0000000000	bernstein
0.0000000000	hypervolume
0.0000000000	advantageous
0.0000000000	exp
0.0000000000	bregman
0.0000000000	accesses
0.0000000000	laplace
0.0000000000	synchronously
0.0000000000	taylor
0.0000000000	defenses
0.0000000000	outlining
0.0000000000	hardness
0.0000000000	vulnerability
0.0000000000	irrespective
0.0000000000	virtually
0.0000000000	unless
0.0000000000	expressible
0.0000000000	eigendecomposition
0.0000000000	reals
0.0000000000	imperfections
0.0000000000	eigenvalues
0.0000000000	notoriously
0.0000000000	robustification
0.0000000000	ro
0.0000000000	backgrounds
0.0000000000	ultimate
0.0000000000	discussing
0.0000000000	spent
0.0000000000	standardize
0.0000000000	recognized
0.0000000000	normalizing
0.0000000000	backbone
0.0000000000	ambient
0.0000000000	tucker
0.0000000000	gamma
0.0000000000	eleven
0.0000000000	justifications
0.0000000000	lvq
0.0000000000	conjectured
0.0000000000	sped
0.0000000000	determination
0.0000000000	reformulation
0.0000000000	tikhonov
0.0000000000	showcase
0.0000000000	whitening
0.0000000000	reparametrization
0.0000000000	clarifies
0.0000000000	embarrassingly
0.0000000000	communicated
0.0000000000	degeneracy
0.0000000000	stratified
0.0000000000	goodfellow
0.0000000000	hmax
0.0000000000	adjusting
0.0000000000	beating
0.0000000000	notice
0.0000000000	salesman
0.0000000000	travelling
0.0000000000	triangulations
0.0000000000	delaunay
0.0000000000	hulls
0.0000000000	blend
0.0000000000	paving
0.0000000000	existent
0.0000000000	lambda
0.0000000000	das
0.0000000000	denoised
0.0000000000	rescaled
0.0000000000	iterate
0.0000000000	logging
0.0000000000	utilities
0.0000000000	tiled
0.0000000000	attaching
0.0000000000	summation
0.0000000000	compiler
0.0000000000	theano
0.0000000000	fuel
0.0000000000	permutation
0.0000000000	standpoint
0.0000000000	fame
0.0000000000	toronto
0.0000000000	surprise
0.0000000000	inversely
0.0000000000	multiplying
0.0000000000	uninformative
0.0000000000	perturbing
0.0000000000	ng
0.0000000000	minute
0.0000000000	guaranteed
0.0000000000	hastings
0.0000000000	ising
0.0000000000	infinite
0.0000000000	ancestral
0.0000000000	concentrates
0.0000000000	graining
0.0000000000	rg
0.0000000000	intimately
0.0000000000	breaking
0.0000000000	cdot
0.0000000000	rewritten
0.0000000000	extremes
0.0000000000	fulfills
0.0000000000	binding
0.0000000000	1996
0.0000000000	el
0.0000000000	1992
0.0000000000	imputed
0.0000000000	arguing
0.0000000000	24
0.0000000000	synchrony
0.0000000000	minibatches
0.0000000000	imputing
0.0000000000	impute
0.0000000000	variances
0.0000000000	pcd
0.0000000000	compressive
0.0000000000	specialize
0.0000000000	imputation
0.0000000000	attractor
0.0000000000	unregularized
0.0000000000	vanishes
0.0000000000	mathcal
0.0000000000	su
0.0000000000	stretching
0.0000000000	distortions
0.0000000000	summarized
0.0000000000	implementing
0.0000000000	tunable
0.0000000000	differentiates
0.0000000000	gauge
0.0000000000	inverting
0.0000000000	momentum
0.0000000000	monitored
0.0000000000	cultures
0.0000000000	examination
0.0000000000	doctors
0.0000000000	assist
0.0000000000	threatening
0.0000000000	diagonal
0.0000000000	bacteria
0.0000000000	mbn
0.0000000000	fac
0.0000000000	culture
0.0000000000	factored
0.0000000000	kronecker
0.0000000000	vague
0.0000000000	confuse
0.0000000000	wavelets
0.0000000000	obviously
0.0000000000	specialist
0.0000000000	private
0.0000000000	packets
0.0000000000	assertion
0.0000000000	windowed
0.0000000000	collaborators
0.0000000000	erm
0.0000000000	minimizers
0.0000000000	flip
0.0000000000	gd
0.0000000000	distilling
0.0000000000	incoherent
0.0000000000	limit
0.0000000000	receptors
0.0000000000	participating
0.0000000000	implementable
0.0000000000	cent
0.0000000000	initiative
0.0000000000	century
0.0000000000	launched
0.0000000000	vectorized
0.0000000000	agencies
0.0000000000	government
0.0000000000	toxic
0.0000000000	cleaning
0.0000000000	food
0.0000000000	chemicals
0.0000000000	reconstructed
0.0000000000	autoregressive
0.0000000000	masked
0.0000000000	rounding
0.0000000000	underscore
0.0000000000	afford
0.0000000000	flowing
0.0000000000	volumes
0.0000000000	gf
0.0000000000	representable
0.0000000000	layerwise
0.0000000000	undirected
0.0000000000	react
0.0000000000	computable
0.0000000000	serial
0.0000000000	ip
0.0000000000	trivially
0.0000000000	provable
0.0000000000	illustrated
0.0000000000	mac
0.0000000000	extrema
0.0000000000	sbm
0.0000000000	reformulated
0.0000000000	rao
0.0000000000	cram
0.0000000000	parallelize
0.0000000000	front
0.0000000000	maximal
0.0000000000	modeler
0.0000000000	forest
0.0000000000	stepwise
0.0000000000	0.90
0.0000000000	0.84
0.0000000000	optimistic
0.0000000000	barrier
0.0000000000	admitting
0.0000000000	determinant
0.0000000000	physicians
0.0000000000	isometry
0.0000000000	mortality
0.0000000000	corollaries
0.0000000000	icu
0.0000000000	opportunities
0.0000000000	ample
0.0000000000	packages
0.0000000000	inactive
0.0000000000	customers
0.0000000000	churn
0.0000000000	silhouettes
0.0000000000	binarized
0.0000000000	activating
0.0000000000	dbms
0.0000000000	bm
0.0000000000	rated
0.0000000000	assays
0.0000000000	cold
0.0000000000	paris
0.0000000000	xu
0.0000000000	aircraft
0.0000000000	unmanned
0.0000000000	themes
0.0000000000	emulates
0.0000000000	collision
0.0000000000	airborne
0.0000000000	slab
0.0000000000	bic
0.0000000000	aic
0.0000000000	concern
0.0000000000	rbf
0.0000000000	reversible
0.0000000000	intermediary
0.0000000000	guard
0.0000000000	multinomial
0.0000000000	picking
0.0000000000	hf
0.0000000000	centering
0.0000000000	burden
0.0000000000	storing
0.0000000000	newest
0.0000000000	blends
0.0000000000	manuscript
0.0000000000	defects
0.0000000000	distractor
0.0000000000	forgotten
0.0000000000	maintained
0.0000000000	intertwined
0.0000000000	tailed
0.0000000000	volatility
0.0000000000	economic
0.0000000000	campus
0.0000000000	moments
0.0000000000	fingerprinting
0.0000000000	fi
0.0000000000	floor
0.0000000000	tournament
0.0000000000	assisted
0.0000000000	mentor
0.0000000000	annual
0.0000000000	compounded
0.0000000000	portfolio
0.0000000000	naive
0.0000000000	mse
0.0000000000	portfolios
0.0000000000	oracle
0.0000000000	stocks
0.0000000000	ev
0.0000000000	enterprise
0.0000000000	capitalization
0.0000000000	retrospective
0.0000000000	debt
0.0000000000	income
0.0000000000	revenue
0.0000000000	companies
0.0000000000	traded
0.0000000000	fundamentals
0.0000000000	company
0.0000000000	investing
0.0000000000	constrains
0.0000000000	living
0.0000000000	1024
0.0000000000	rum
0.0000000000	located
0.0000000000	implication
0.0000000000	university
0.0000000000	array
0.0000000000	yang
0.0000000000	checking
0.0000000000	accumulative
0.0000000000	intrusion
0.0000000000	vi
0.0000000000	advancing
0.0000000000	slm
0.0000000000	gsgp
0.0000000000	impeded
0.0000000000	stopping
0.0000000000	pulses
0.0000000000	predominantly
0.0000000000	logarithmically
0.0000000000	collisions
0.0000000000	tractability
0.0000000000	idle
0.0000000000	optimally
0.0000000000	polynomials
0.0000000000	uc
0.0000000000	worst
0.0000000000	heteroscedasticity
0.0000000000	durations
0.0000000000	roots
0.0000000000	risks
0.0000000000	surgeries
0.0000000000	preventing
0.0000000000	unrealistic
0.0000000000	adjustable
0.0000000000	surfaces
0.0000000000	heteroscedastic
0.0000000000	surgery
0.0000000000	readout
0.0000000000	scnn
0.0000000000	caffe
0.0000000000	copies
0.0000000000	nonlinearity
0.0000000000	ts
0.0000000000	switching
0.0000000000	ball
0.0000000000	friendly
0.0000000000	bigger
0.0000000000	ellipses
0.0000000000	indicators
0.0000000000	ssl
0.0000000000	shallower
0.0000000000	hinders
0.0000000000	enjoy
0.0000000000	parametrizations
0.0000000000	numerically
0.0000000000	imply
0.0000000000	smoothed
0.0000000000	prevailing
0.0000000000	alternately
0.0000000000	differentiation
0.0000000000	embeds
0.0000000000	biclusters
0.0000000000	retained
0.0000000000	circumvent
0.0000000000	800
0.0000000000	granted
0.0000000000	defensive
0.0000000000	improper
0.0000000000	manipulated
0.0000000000	authentication
0.0000000000	bypass
0.0000000000	illegal
0.0000000000	undermine
0.0000000000	0.9
0.0000000000	docking
0.0000000000	defense
0.0000000000	ligand
0.0000000000	qsar
0.0000000000	pop
0.0000000000	subclass
0.0000000000	comprise
0.0000000000	save
0.0000000000	staleness
0.0000000000	stale
0.0000000000	circular
0.0000000000	fingerprints
0.0000000000	truncation
0.0000000000	parametrically
0.0000000000	eigenvectors
0.0000000000	spectrogram
0.0000000000	kalman
0.0000000000	masking
0.0000000000	memoryless
0.0000000000	incrementally
0.0000000000	instantiation
0.0000000000	101
0.0000000000	anomaly
0.0000000000	zsl
0.0000000000	encompassing
0.0000000000	mdl
0.0000000000	shadow
0.0000000000	orbits
0.0000000000	resurgence
0.0000000000	originate
0.0000000000	encounter
0.0000000000	unfold
0.0000000000	fear
0.0000000000	believed
0.0000000000	discusses
0.0000000000	notations
0.0000000000	dilemma
0.0000000000	19
0.0000000000	sd
0.0000000000	claim
0.0000000000	physiologically
0.0000000000	impactful
0.0000000000	ranges
0.0000000000	dissimilarity
0.0000000000	toolbox
0.0000000000	strongest
0.0000000000	arguably
0.0000000000	porting
0.0000000000	3x
0.0000000000	dcn
0.0000000000	derivation
0.0000000000	dcns
0.0000000000	reproduces
0.0000000000	smoothly
0.0000000000	drmm
0.0000000000	mle
0.0000000000	herein
0.0000000000	plda
0.0000000000	misspecified
0.0000000000	randomization
0.0000000000	tangent
0.0000000000	analytically
0.0000000000	slower
0.0000000000	regularize
0.0000000000	indistinguishable
0.0000000000	perceptually
0.0000000000	clusterings
0.0000000000	centroids
0.0000000000	pd
0.0000000000	perturb
0.0000000000	satisfaction
0.0000000000	neumann
0.0000000000	graphically
0.0000000000	recipes
0.0000000000	gis
0.0000000000	simulating
0.0000000000	lif
0.0000000000	gcnn
0.0000000000	dmms
0.0000000000	equality
0.0000000000	hashing
0.0000000000	1995
0.0000000000	estimations
0.0000000000	98.8
0.0000000000	conducive
0.0000000000	maximisation
0.0000000000	subnetworks
0.0000000000	generalisations
0.0000000000	planes
0.0000000000	pearson
0.0000000000	eventual
0.0000000000	manifolds
0.0000000000	95
0.0000000000	beginning
0.0000000000	balls
0.0000000000	positioning
0.0000000000	visiting
0.0000000000	retrieve
0.0000000000	unobserved
0.0000000000	visitors
0.0000000000	illustrative
0.0000000000	walker
0.0000000000	polygon
0.0000000000	coloring
0.0000000000	cascades
0.0000000000	6x
0.0000000000	2x
0.0000000000	cascading
0.0000000000	minority
0.0000000000	mitigated
0.0000000000	tabular
0.0000000000	equipping
0.0000000000	biochemical
0.0000000000	synapse
0.0000000000	abrupt
0.0000000000	genes
0.0000000000	parkinson
0.0000000000	prescriptions
0.0000000000	glimpse
0.0000000000	granger
0.0000000000	contrasting
0.0000000000	attachment
0.0000000000	shrinking
0.0000000000	apprenticeship
0.0000000000	subroutine
0.0000000000	circumstances
0.0000000000	enter
0.0000000000	radically
0.0000000000	experienced
0.0000000000	confused
0.0000000000	drastic
0.0000000000	memcomputing
0.0000000000	syntactical
0.0000000000	shuffling
0.0000000000	kinematic
0.0000000000	morphologies
0.0000000000	spontaneously
0.0000000000	joints
0.0000000000	freezing
0.0000000000	subproblems
0.0000000000	bodies
0.0000000000	gem
0.0000000000	unexplored
0.0000000000	forget
0.0000000000	vertically
0.0000000000	horizontally
0.0000000000	htn
0.0000000000	likes
0.0000000000	opinion
0.0000000000	viewer
0.0000000000	subjective
0.0000000000	approachable
0.0000000000	designers
0.0000000000	problematic
0.0000000000	advertisement
0.0000000000	leaves
0.0000000000	browsing
0.0000000000	2.0
0.0000000000	mimo
0.0000000000	antenna
0.0000000000	advertisements
0.0000000000	motions
0.0000000000	adjustment
0.0000000000	delicate
0.0000000000	transport
0.0000000000	theses
0.0000000000	deterministically
0.0000000000	particles
0.0000000000	her
0.0000000000	dialectical
0.0000000000	projections
0.0000000000	catastrophe
0.0000000000	outline
0.0000000000	extrapolating
0.0000000000	lock
0.0000000000	insert
0.0000000000	labor
0.0000000000	intervene
0.0000000000	cumulative
0.0000000000	calculates
0.0000000000	dangerous
0.0000000000	lte
0.0000000000	evolutions
0.0000000000	pick
0.0000000000	sliding
0.0000000000	dcnn
0.0000000000	mcts
0.0000000000	compromise
0.0000000000	seriously
0.0000000000	dimensionalities
0.0000000000	informational
0.0000000000	populations
0.0000000000	coordination
0.0000000000	bloom
0.0000000000	recommenders
0.0000000000	subsymbolic
0.0000000000	unification
0.0000000000	prolog
0.0000000000	stochasticity
0.0000000000	ib
0.0000000000	cardinality
0.0000000000	scheduling
0.0000000000	job
0.0000000000	packing
0.0000000000	towers
0.0000000000	tower
0.0000000000	instantiations
0.0000000000	probed
0.0000000000	instantly
0.0000000000	interdependencies
0.0000000000	landscapes
0.0000000000	racing
0.0000000000	induces
0.0000000000	continual
0.0000000000	instruction
0.0000000000	multiplier
0.0000000000	ef
0.0000000000	reversal
0.0000000000	repeating
0.0000000000	unpredictable
0.0000000000	battery
0.0000000000	multiplications
0.0000000000	acquires
0.0000000000	plastic
0.0000000000	amenable
0.0000000000	saving
0.0000000000	surge
0.0000000000	amplified
0.0000000000	periphery
0.0000000000	fovea
0.0000000000	retina
0.0000000000	eccentricity
0.0000000000	rivals
0.0000000000	tiling
0.0000000000	fixations
0.0000000000	smallest
0.0000000000	distractors
0.0000000000	amidst
0.0000000000	retinal
0.0000000000	lsa
0.0000000000	foveal
0.0000000000	timed
0.0000000000	hutter
0.0000000000	le
0.0000000000	surprisal
0.0000000000	avoidance
0.0000000000	stimulation
0.0000000000	aka
0.0000000000	heads
0.0000000000	mathbb
0.0000000000	euclidean
0.0000000000	elaboration
0.0000000000	prunes
0.0000000000	hypothetical
0.0000000000	reframing
0.0000000000	serious
0.0000000000	retrain
0.0000000000	drones
0.0000000000	wearables
0.0000000000	experimented
0.0000000000	interconnections
0.0000000000	researched
0.0000000000	unknowns
0.0000000000	nine
0.0000000000	utilises
0.0000000000	conclusive
0.0000000000	scattered
0.0000000000	solvable
0.0000000000	valuations
0.0000000000	neuroevolution
0.0000000000	concludes
0.0000000000	deductive
0.0000000000	founded
0.0000000000	constants
0.0000000000	serving
0.0000000000	dance
0.0000000000	nuanced
0.0000000000	opened
0.0000000000	behaviours
0.0000000000	optimise
0.0000000000	filled
0.0000000000	sketches
0.0000000000	programmers
0.0000000000	dueling
0.0000000000	knowing
0.0000000000	ale
0.0000000000	forth
0.0000000000	mental
0.0000000000	innate
0.0000000000	rationality
0.0000000000	maker
0.0000000000	formalism
0.0000000000	transmission
0.0000000000	permitting
0.0000000000	makers
0.0000000000	clinic
0.0000000000	visit
0.0000000000	rejection
0.0000000000	endpoints
0.0000000000	concerning
0.0000000000	berlin
0.0000000000	1990
0.0000000000	dating
0.0000000000	curious
0.0000000000	invented
0.0000000000	medications
0.0000000000	hospital
0.0000000000	ending
0.0000000000	reparameterization
0.0000000000	ais
0.0000000000	drive
0.0000000000	starcraft
0.0000000000	emulate
0.0000000000	versatility
0.0000000000	decorrelated
0.0000000000	champion
0.0000000000	negation
0.0000000000	follow
0.0000000000	succeeded
0.0000000000	featuring
0.0000000000	78
0.0000000000	chess
0.0000000000	unfolding
0.0000000000	reflecting
0.0000000000	lifted
0.0000000000	41
0.0000000000	surpassed
0.0000000000	49
0.0000000000	rbm
0.0000000000	dbns
0.0000000000	polyphonic
0.0000000000	win
0.0000000000	gnu
0.0000000000	symmetries
0.0000000000	tying
0.0000000000	brute
0.0000000000	legs
0.0000000000	synchronization
0.0000000000	lose
0.0000000000	identical
0.0000000000	cpgs
0.0000000000	deviates
0.0000000000	leg
0.0000000000	gait
0.0000000000	cpg
0.0000000000	periodic
0.0000000000	honey
0.0000000000	foraging
0.0000000000	abc
0.0000000000	chief
0.0000000000	insect
0.0000000000	scientists
0.0000000000	compensation
0.0000000000	malfunction
0.0000000000	musical
0.0000000000	earthquake
0.0000000000	normative
0.0000000000	protein
0.0000000000	page
0.0000000000	regards
0.0000000000	sight
0.0000000000	ordinal
0.0000000000	intervals
0.0000000000	department
0.0000000000	emergency
0.0000000000	chest
0.0000000000	artery
0.0000000000	coronary
0.0000000000	sec
0.0000000000	interval
0.0000000000	cardiovascular
0.0000000000	blood
0.0000000000	pain
0.0000000000	heart
0.0000000000	indications
0.0000000000	dozens
0.0000000000	saw
0.0000000000	rbp
0.0000000000	unrolled
0.0000000000	workshop
0.0000000000	sketch
0.0000000000	satisfiability
0.0000000000	relaxations
0.0000000000	lp
0.0000000000	ends
0.0000000000	interpreter
0.0000000000	expressing
0.0000000000	overestimate
0.0000000000	panel
0.0000000000	terpret
0.0000000000	distracted
0.0000000000	fragility
0.0000000000	diminish
0.0000000000	confirmation
0.0000000000	questionable
0.0000000000	indices
0.0000000000	diagram
0.0000000000	equivalence
0.0000000000	nondeterministic
0.0000000000	specification
0.0000000000	interruption
0.0000000000	beta
0.0000000000	96
0.0000000000	dominate
0.0000000000	overwhelmingly
0.0000000000	reflex
0.0000000000	nervous
0.0000000000	straight
0.0000000000	faithfully
0.0000000000	shaped
0.0000000000	snake
0.0000000000	placing
0.0000000000	constituent
0.0000000000	placement
0.0000000000	tuple
0.0000000000	pcg
0.0000000000	procedural
0.0000000000	sm
0.0000000000	wi
0.0000000000	mcc
0.0000000000	newswire
0.0000000000	reuters
0.0000000000	distinctive
0.0000000000	supported
0.0000000000	wiki
0.0000000000	vertex
0.0000000000	glasses
0.0000000000	spin
0.0000000000	maxsat
0.0000000000	threefold
0.0000000000	edas
0.0000000000	eda
0.0000000000	hboa
0.0000000000	aco
0.0000000000	ant
0.0000000000	ga
0.0000000000	reducts
0.0000000000	offered
0.0000000000	exhaustive
0.0000000000	permit
0.0000000000	periodically
0.0000000000	distinguishable
0.0000000000	outcome
0.0000000000	shall
0.0000000000	colony
0.0000000000	bee
0.0000000000	initiated
0.0000000000	reduct
0.0000000000	rough
0.0000000000	sigmoidal
0.0000000000	resultant
0.0000000000	94
0.0000000000	93
0.0000000000	candidates
0.0000000000	derivative
0.0000000000	retrained
0.0000000000	formulating
0.0000000000	parametrization
0.0000000000	muscle
0.0000000000	cardiac
0.0000000000	eegs
0.0000000000	sizing
0.0000000000	boa
0.0000000000	proportion
0.0000000000	inheritance
0.0000000000	engineers
0.0000000000	convincingly
0.0000000000	stimulating
0.0000000000	peers
0.0000000000	balancing
0.0000000000	pole
0.0000000000	cart
0.0000000000	differentiating
0.0000000000	default
0.0000000000	controllers
0.0000000000	trying
0.0000000000	hindsight
0.0000000000	formalizing
0.0000000000	lexicographic
0.0000000000	metaheuristics
0.0000000000	universality
0.0000000000	immediately
0.0000000000	cuda
0.0000000000	minibatch
0.0000000000	parallelized
0.0000000000	differentially
0.0000000000	cooperate
0.0000000000	parallelizing
0.0000000000	anticipate
0.0000000000	marks
0.0000000000	claims
0.0000000000	flood
0.0000000000	revolution
0.0000000000	safely
0.0000000000	erd
0.0000000000	evolves
0.0000000000	darwinian
0.0000000000	chromatin
0.0000000000	regulation
0.0000000000	emphasizing
0.0000000000	moore
0.0000000000	revisited
0.0000000000	newton
0.0000000000	gauss
0.0000000000	pursuing
0.0000000000	undesired
0.0000000000	median
0.0000000000	separates
0.0000000000	lifetime
0.0000000000	door
0.0000000000	addressable
0.0000000000	lifelong
0.0000000000	underfitting
0.0000000000	pseudoinverse
0.0000000000	adaptability
0.0000000000	kappa
0.0000000000	ids
0.0000000000	usps
0.0000000000	elastic
0.0000000000	sea
0.0000000000	sudden
0.0000000000	streaming
0.0000000000	os
0.0000000000	classifications
0.0000000000	clas
0.0000000000	elm
0.0000000000	comprising
0.0000000000	completed
0.0000000000	ws
0.0000000000	winograd
0.0000000000	superset
0.0000000000	physician
0.0000000000	dis
0.0000000000	visits
0.0000000000	influential
0.0000000000	conceptnet
0.0000000000	triple
0.0000000000	extreme
0.0000000000	2600
0.0000000000	pareto
0.0000000000	overly
0.0000000000	tpot
0.0000000000	macro
0.0000000000	debug
0.0000000000	savings
0.0000000000	offering
0.0000000000	bnns
0.0000000000	automating
0.0000000000	ineffective
0.0000000000	dqns
0.0000000000	deploying
0.0000000000	boolean
0.0000000000	thyroid
0.0000000000	learnability
0.0000000000	ellipsoid
0.0000000000	bitwise
0.0000000000	esns
0.0000000000	mazes
0.0000000000	procedurally
0.0000000000	accumulated
0.0000000000	grown
0.0000000000	swarms
0.0000000000	participate
0.0000000000	quadratically
0.0000000000	grayscale
0.0000000000	xor
0.0000000000	crossbar
0.0000000000	reservoir
0.0000000000	queueing
0.0000000000	echo
0.0000000000	unsuccessful
0.0000000000	dbm
0.0000000000	fuzzy
0.0000000000	35
0.0000000000	aged
0.0000000000	healthy
0.0000000000	sleeping
0.0000000000	65
0.0000000000	futures
0.0000000000	electroencephalogram
0.0000000000	electroencephalograms
0.0000000000	hill
0.0000000000	curves
0.0000000000	convergent
0.0000000000	voronoi
0.0000000000	splitting
0.0000000000	priming
0.0000000000	neocortex
0.0000000000	compatibility
0.0000000000	hippocampal
0.0000000000	ad
0.0000000000	interacts
0.0000000000	pomdp
0.0000000000	toy
0.0000000000	assumes
0.0000000000	reactive
0.0000000000	economy
0.0000000000	pomdps
0.0000000000	neocortical
0.0000000000	mountain
0.0000000000	snow
0.0000000000	51
0.0000000000	hmdb
0.0000000000	aggregations
0.0000000000	actionable
0.0000000000	geospatial
0.0000000000	resolutions
0.0000000000	explanatory
0.0000000000	tedious
0.0000000000	spatially
0.0000000000	outlier
0.0000000000	abundances
0.0000000000	heatmaps
0.0000000000	promoting
0.0000000000	negativity
0.0000000000	happiness
0.0000000000	attractiveness
0.0000000000	bands
0.0000000000	admm
0.0000000000	correntropy
0.0000000000	anisotropic
0.0000000000	ols
0.0000000000	formulated
0.0000000000	connectivities
0.0000000000	accessing
0.0000000000	employees
0.0000000000	safe
0.0000000000	mammals
0.0000000000	simulates
0.0000000000	schools
0.0000000000	anywhere
0.0000000000	internet
0.0000000000	apparent
0.0000000000	display
0.0000000000	separated
0.0000000000	smart
0.0000000000	human3.6m
0.0000000000	gradual
0.0000000000	sexual
0.0000000000	parent
0.0000000000	assessment
0.0000000000	debate
0.0000000000	calculate
0.0000000000	warp
0.0000000000	wgan
0.0000000000	eeg
0.0000000000	electroencephalography
0.0000000000	audiences
0.0000000000	vehicles
0.0000000000	reality
0.0000000000	neuro
0.0000000000	rationale
0.0000000000	hp
0.0000000000	neighbourhood
0.0000000000	radiomic
0.0000000000	retinopathy
0.0000000000	diabetic
0.0000000000	dr
0.0000000000	radiomics
0.0000000000	preference
0.0000000000	personalize
0.0000000000	multilinear
0.0000000000	apps
0.0000000000	coordinates
0.0000000000	painting
0.0000000000	atmospheric
0.0000000000	gatys
0.0000000000	host
0.0000000000	imagery
0.0000000000	clothes
0.0000000000	0.68
0.0000000000	drivers
0.0000000000	trip
0.0000000000	automobile
0.0000000000	adas
0.0000000000	driver
0.0000000000	url
0.0000000000	haar
0.0000000000	equivalently
0.0000000000	planet
0.0000000000	icdar
0.0000000000	conference
0.0000000000	chapter
0.0000000000	deepening
0.0000000000	psychophysical
0.0000000000	seeds
0.0000000000	inversion
0.0000000000	computers
0.0000000000	primate
0.0000000000	deals
0.0000000000	behavioral
0.0000000000	elicit
0.0000000000	ubiquitous
0.0000000000	stimuli
0.0000000000	disaster
0.0000000000	1.5
0.0000000000	kth
0.0000000000	fluid
0.0000000000	pedestrian
0.0000000000	diffusion
0.0000000000	multispectral
0.0000000000	onset
0.0000000000	invasive
0.0000000000	dementia
0.0000000000	adc
0.0000000000	kohonen
0.0000000000	mr
0.0000000000	tracked
0.0000000000	satellite
0.0000000000	besides
0.0000000000	suppress
0.0000000000	ternary
0.0000000000	deemed
0.0000000000	references
0.0000000000	heatmap
0.0000000000	cluttered
0.0000000000	depicting
0.0000000000	vggnet
0.0000000000	31
0.0000000000	office
0.0000000000	sixteen
0.0000000000	conv
0.0000000000	preserved
0.0000000000	da
0.0000000000	repeatability
0.0000000000	stress
0.0000000000	year
0.0000000000	participation
0.0000000000	googlenet
0.0000000000	dn
0.0000000000	quantized
0.0000000000	distinctions
0.0000000000	interdependent
0.0000000000	noticeable
0.0000000000	visualisation
0.0000000000	royal
0.0000000000	recognise
0.0000000000	som
0.0000000000	firefly
0.0000000000	possess
0.0000000000	squeezenet
0.0000000000	biggest
0.0000000000	inferencing
0.0000000000	ssd
0.0000000000	tiny
0.0000000000	5.1
0.0000000000	concentrate
0.0000000000	rigorously
0.0000000000	64
0.0000000000	devoted
0.0000000000	nvidia
0.0000000000	objection
0.0000000000	inferences
0.0000000000	cut
0.0000000000	walks
0.0000000000	consumption
0.0000000000	flops
0.0000000000	tumor
0.0000000000	specialists
0.0000000000	tumors
0.0000000000	tunes
0.0000000000	worldwide
0.0000000000	breast
0.0000000000	trial
0.0000000000	yolov2
0.0000000000	masses
0.0000000000	growcut
0.0000000000	pervasive
0.0000000000	begun
0.0000000000	conducting
0.0000000000	mitigates
0.0000000000	industries
0.0000000000	prune
0.0000000000	finance
0.0000000000	nest
0.0000000000	uninterpretable
0.0000000000	criticized
0.0000000000	yolo
0.0000000000	multiagent
0.0000000000	constraining
0.0000000000	market
0.0000000000	financial
0.0000000000	diagnose
0.0000000000	correspondingly
0.0000000000	hampered
0.0000000000	iou
0.0000000000	constituting
0.0000000000	upsampling
0.0000000000	cortical
0.0000000000	receptive
0.0000000000	atrous
0.0000000000	isic
0.0000000000	lesions
0.0000000000	skin
0.0000000000	harmony
0.0000000000	annealing
0.0000000000	intellectual
0.0000000000	closer
0.0000000000	managed
0.0000000000	hadamard
0.0000000000	contrasts
0.0000000000	reservoirs
0.0000000000	metaheuristic
0.0000000000	blending
0.0000000000	prospect
0.0000000000	california
0.0000000000	bay
0.0000000000	traffic
0.0000000000	sleep
0.0000000000	readers
0.0000000000	mark
0.0000000000	bench
0.0000000000	discussion
0.0000000000	animal
0.0000000000	proactive
0.0000000000	memristors
0.0000000000	passive
0.0000000000	spurred
0.0000000000	disasters
0.0000000000	impulse
0.0000000000	circuit
0.0000000000	eliminated
0.0000000000	circuitry
0.0000000000	memristor
0.0000000000	cmos
0.0000000000	chip
0.0000000000	biology
0.0000000000	familiar
0.0000000000	eyes
0.0000000000	ascent
0.0000000000	conferences
0.0000000000	journals
0.0000000000	covered
0.0000000000	material
0.0000000000	white
0.0000000000	ing
0.0000000000	clinically
0.0000000000	lion
0.0000000000	radiological
0.0000000000	radio
0.0000000000	probable
0.0000000000	cad
0.0000000000	aided
0.0000000000	mammography
0.0000000000	assistance
0.0000000000	fooled
0.0000000000	moving
0.0000000000	regional
0.0000000000	voxels
0.0000000000	fuzzification
0.0000000000	biometric
0.0000000000	hrf
0.0000000000	witness
0.0000000000	discriminant
0.0000000000	iris
0.0000000000	mirror
0.0000000000	signature
0.0000000000	pls
0.0000000000	diverging
0.0000000000	converging
0.0000000000	parcellation
0.0000000000	outer
0.0000000000	circuits
0.0000000000	predominant
0.0000000000	mirrors
0.0000000000	reconstructs
0.0000000000	band
0.0000000000	border
0.0000000000	velocity
0.0000000000	mirroring
0.0000000000	ec
0.0000000000	meaningfully
0.0000000000	nested
0.0000000000	strategic
0.0000000000	explainable
0.0000000000	referenced
0.0000000000	superlinear
0.0000000000	pivotal
0.0000000000	programmable
0.0000000000	explorations
0.0000000000	medicine
0.0000000000	vital
0.0000000000	metropolis
0.0000000000	mcmc
0.0000000000	nns
0.0000000000	prompted
0.0000000000	belongs
0.0000000000	notation
0.0000000000	standardized
0.0000000000	cascade
0.0000000000	converting
0.0000000000	loaded
0.0000000000	square
0.0000000000	hundred
0.0000000000	amongst
0.0000000000	hindered
0.0000000000	lying
0.0000000000	neurally
0.0000000000	researches
0.0000000000	dbpedia
0.0000000000	sparql
0.0000000000	46
0.0000000000	44
0.0000000000	poisson
0.0000000000	specifying
0.0000000000	strengthen
0.0000000000	theorems
0.0000000000	native
0.0000000000	parallelizable
0.0000000000	challenged
0.0000000000	cache
0.0000000000	emph
0.0000000000	averaged
0.0000000000	asgd
0.0000000000	nt
0.0000000000	dropconnect
0.0000000000	dropped
0.0000000000	everyday
0.0000000000	ubiquity
0.0000000000	conceptual
0.0000000000	supertagging
0.0000000000	ccg
0.0000000000	talker
0.0000000000	enhancement
0.0000000000	monaural
0.0000000000	discontinuous
0.0000000000	behaviour
0.0000000000	corrections
0.0000000000	bootstrap
0.0000000000	corrupt
0.0000000000	nearby
0.0000000000	smoother
0.0000000000	discretized
0.0000000000	grammatical
0.0000000000	latin
0.0000000000	accounted
0.0000000000	glove
0.0000000000	spellings
0.0000000000	kdd
0.0000000000	linguistically
0.0000000000	trec
0.0000000000	extrinsically
0.0000000000	formally
0.0000000000	appeal
0.0000000000	proximity
0.0000000000	pcs
0.0000000000	unannotated
0.0000000000	going
0.0000000000	chunking
0.0000000000	disk
0.0000000000	byte
0.0000000000	mutual
0.0000000000	1k
0.0000000000	passed
0.0000000000	mmi
0.0000000000	speedups
0.0000000000	dilation
0.0000000000	expertise
0.0000000000	laborious
0.0000000000	propensity
0.0000000000	wavenet
0.0000000000	duration
0.0000000000	locating
0.0000000000	groundwork
0.0000000000	occupy
0.0000000000	truncating
0.0000000000	kws
0.0000000000	strided
0.0000000000	grapheme
0.0000000000	e2e
0.0000000000	assigning
0.0000000000	pixelwise
0.0000000000	constructive
0.0000000000	biasing
0.0000000000	competency
0.0000000000	documented
0.0000000000	ready
0.0000000000	stones
0.0000000000	stepping
0.0000000000	comments
0.0000000000	sites
0.0000000000	europarl
0.0000000000	sa
0.0000000000	bilingual
0.0000000000	lr
0.0000000000	bangla
0.0000000000	mono
0.0000000000	kn
0.0000000000	ney
0.0000000000	clm
0.0000000000	clock
0.0000000000	timescale
0.0000000000	timescales
0.0000000000	campaigns
0.0000000000	sentiwordnet
0.0000000000	academic
0.0000000000	package
0.0000000000	1.7
0.0000000000	4.2
0.0000000000	eliminate
0.0000000000	calculation
0.0000000000	hinton
0.0000000000	2006
0.0000000000	exceedingly
0.0000000000	batching
0.0000000000	marking
0.0000000000	ats
0.0000000000	swb
0.0000000000	spectrally
0.0000000000	contend
0.0000000000	axis
0.0000000000	pos
0.0000000000	essays
0.0000000000	topical
0.0000000000	attentional
0.0000000000	jordan
0.0000000000	elman
0.0000000000	wmt16
0.0000000000	labelling
0.0000000000	29
0.0000000000	adapts
0.0000000000	multimodality
0.0000000000	apis
0.0000000000	files
0.0000000000	xml
0.0000000000	school
0.0000000000	psychological
0.0000000000	count
0.0000000000	stride
0.0000000000	relevancy
0.0000000000	tradeoff
0.0000000000	waveforms
0.0000000000	multiscale
0.0000000000	compresses
0.0000000000	hurt
0.0000000000	pointing
0.0000000000	cqa
0.0000000000	illuminating
0.0000000000	freely
0.0000000000	zeroth
0.0000000000	fitness
0.0000000000	valuable
0.0000000000	2.5
0.0000000000	moderate
0.0000000000	boundaries
0.0000000000	finished
0.0000000000	automate
0.0000000000	profiles
0.0000000000	senone
0.0000000000	refers
0.0000000000	asynchronously
0.0000000000	spotting
0.0000000000	impose
0.0000000000	hindi
0.0000000000	resourced
0.0000000000	1.6
0.0000000000	tf
0.0000000000	idf
0.0000000000	discriminatory
0.0000000000	stop
0.0000000000	omit
0.0000000000	fly
0.0000000000	tried
0.0000000000	pay
0.0000000000	proprietary
0.0000000000	heavy
0.0000000000	decides
0.0000000000	concisely
0.0000000000	2003
0.0000000000	conll
0.0000000000	weighting
0.0000000000	graded
0.0000000000	headlines
0.0000000000	computes
0.0000000000	phrased
0.0000000000	arrives
0.0000000000	popularly
0.0000000000	com
0.0000000000	advice
0.0000000000	asking
0.0000000000	exclusion
0.0000000000	portions
0.0000000000	comparatively
0.0000000000	schema
0.0000000000	iarpa
0.0000000000	accompanying
0.0000000000	kim
0.0000000000	comprised
0.0000000000	pac
0.0000000000	speeded
0.0000000000	adjusts
0.0000000000	pretty
0.0000000000	keeps
0.0000000000	occurrence
0.0000000000	nominal
0.0000000000	lda
0.0000000000	simplicity
0.0000000000	attached
0.0000000000	adp
0.0000000000	triplets
0.0000000000	spatiotemporal
0.0000000000	arranged
0.0000000000	moses
0.0000000000	trigger
0.0000000000	episodic
0.0000000000	subsume
0.0000000000	anything
0.0000000000	write
0.0000000000	proves
0.0000000000	fitting
0.0000000000	mutually
0.0000000000	pan
0.0000000000	mat
0.0000000000	traces
0.0000000000	ted
0.0000000000	quotes
0.0000000000	layered
0.0000000000	exceptional
0.0000000000	omitting
0.0000000000	enjoying
0.0000000000	nominals
0.0000000000	dominates
0.0000000000	cr
0.0000000000	4d
0.0000000000	ofthe
0.0000000000	persistent
0.0000000000	mitigating
0.0000000000	engaged
0.0000000000	shedding
0.0000000000	dd
0.0000000000	prohibitive
0.0000000000	incurs
0.0000000000	dedicated
0.0000000000	constituency
0.0000000000	handles
0.0000000000	translators
0.0000000000	professional
0.0000000000	insertion
0.0000000000	resampled
0.0000000000	continued
0.0000000000	summarizes
0.0000000000	reverberation
0.0000000000	acknowledged
0.0000000000	contest
0.0000000000	2.8
0.0000000000	disambiguate
0.0000000000	compounds
0.0000000000	emit
0.0000000000	synthesizer
0.0000000000	fulfill
0.0000000000	disambiguation
0.0000000000	questioning
0.0000000000	inability
0.0000000000	got
0.0000000000	alleviating
0.0000000000	claimed
0.0000000000	intended
0.0000000000	mfccs
0.0000000000	tract
0.0000000000	vocal
0.0000000000	spectrograms
0.0000000000	coefficients
0.0000000000	synthesizers
0.0000000000	fluency
0.0000000000	adequacy
0.0000000000	morphemes
0.0000000000	parameterizations
0.0000000000	vectorization
0.0000000000	0.73
0.0000000000	stark
0.0000000000	chaotic
0.0000000000	efficiencies
0.0000000000	exceptionally
0.0000000000	adequately
0.0000000000	cite
0.0000000000	1.4
0.0000000000	medium
0.0000000000	keyword
0.0000000000	activate
0.0000000000	judge
0.0000000000	keywords
0.0000000000	unimportant
0.0000000000	attenuate
0.0000000000	logged
0.0000000000	compromised
0.0000000000	accumulates
0.0000000000	hot
0.0000000000	develops
0.0000000000	summarizing
0.0000000000	heuristically
0.0000000000	ibm
0.0000000000	lost
0.0000000000	straightforwardly
0.0000000000	admitted
0.0000000000	redundancies
0.0000000000	factorizations
0.0000000000	chen
0.0000000000	padding
0.0000000000	3x3
0.0000000000	sick
0.0000000000	rcnn
0.0000000000	pursue
0.0000000000	deduction
0.0000000000	conquer
0.0000000000	divide
0.0000000000	recognizers
0.0000000000	distortion
0.0000000000	extrapolate
0.0000000000	student
0.0000000000	versus
0.0000000000	sourcing
0.0000000000	gmms
0.0000000000	labelers
0.0000000000	relus
0.0000000000	prompt
0.0000000000	submitted
0.0000000000	weakness
0.0000000000	essay
0.0000000000	prompts
0.0000000000	si
0.0000000000	20k
0.0000000000	92
0.0000000000	overlooked
0.0000000000	lid
0.0000000000	dictate
0.0000000000	everywhere
0.0000000000	exposure
0.0000000000	unidirectional
0.0000000000	proceeds
0.0000000000	speaking
0.0000000000	responds
0.0000000000	isr
0.0000000000	scheduled
0.0000000000	subtrees
0.0000000000	rightarrow
0.0000000000	shortcut
0.0000000000	lazy
0.0000000000	alternatively
0.0000000000	injected
0.0000000000	developments
0.0000000000	circle
0.0000000000	lingual
0.0000000000	meeting
0.0000000000	crf
0.0000000000	windows
0.0000000000	plain
0.0000000000	crfs
0.0000000000	surveillance
0.0000000000	pharmacovigilance
0.0000000000	visualising
0.0000000000	summarises
0.0000000000	sda
0.0000000000	la
0.0000000000	sms
0.0000000000	permuted
0.0000000000	attitude
0.0000000000	propagated
0.0000000000	dropping
0.0000000000	forces
0.0000000000	stance
0.0000000000	reports
0.0000000000	pathology
0.0000000000	cepstral
0.0000000000	generalisation
0.0000000000	queues
0.0000000000	stacks
0.0000000000	analogues
0.0000000000	continuously
0.0000000000	equipped
0.0000000000	fsmn
0.0000000000	plp
0.0000000000	mfcc
0.0000000000	ours
0.0000000000	publish
0.0000000000	projects
0.0000000000	competitor
0.0000000000	lan
0.0000000000	wang
0.0000000000	curation
0.0000000000	turning
0.0000000000	mined
0.0000000000	simplest
0.0000000000	polarity
0.0000000000	retrieved
0.0000000000	rt
0.0000000000	terminology
0.0000000000	file
0.0000000000	national
0.0000000000	treat
0.0000000000	prefix
0.0000000000	transcript
0.0000000000	discarding
0.0000000000	incoming
0.0000000000	buffer
0.0000000000	facets
0.0000000000	lets
0.0000000000	maintains
0.0000000000	semisupervised
0.0000000000	innovation
0.0000000000	feedbacks
0.0000000000	lms
0.0000000000	fnn
0.0000000000	positions
0.0000000000	something
0.0000000000	rest
0.0000000000	transcribed
0.0000000000	115
0.0000000000	phonological
0.0000000000	segmental
0.0000000000	tandem
0.0000000000	nouns
0.0000000000	flickr30k
0.0000000000	letter
0.0000000000	triples
0.0000000000	fragments
0.0000000000	composable
0.0000000000	assemble
0.0000000000	strings
0.0000000000	signer
0.0000000000	m
0.0000000000	fuse
0.0000000000	tangible
0.0000000000	fda
0.0000000000	fc7
0.0000000000	overwhelming
0.0000000000	shrink
0.0000000000	merge
0.0000000000	inevitably
0.0000000000	merging
0.0000000000	looking
0.0000000000	injecting
0.0000000000	disciplines
0.0000000000	attracting
0.0000000000	reproducibility
0.0000000000	testbed
0.0000000000	87
0.0000000000	consecutively
0.0000000000	tied
0.0000000000	hands
0.0000000000	unlabelled
0.0000000000	dm
0.0000000000	craft
0.0000000000	daily
0.0000000000	indispensable
0.0000000000	becoming
0.0000000000	assistants
0.0000000000	disparate
0.0000000000	2.2
0.0000000000	subword
0.0000000000	anyone
0.0000000000	accessible
0.0000000000	annotate
0.0000000000	beat
0.0000000000	syllable
0.0000000000	privacy
0.0000000000	tamil
0.0000000000	recognising
0.0000000000	soon
0.0000000000	london
0.0000000000	galleries
0.0000000000	metadata
0.0000000000	catalog
0.0000000000	manifest
0.0000000000	fluctuations
0.0000000000	ear
0.0000000000	gps
0.0000000000	lends
0.0000000000	waiting
0.0000000000	pagerank
0.0000000000	impacts
0.0000000000	relaxed
0.0000000000	emergent
0.0000000000	dialect
0.0000000000	accessibility
0.0000000000	indefinite
0.0000000000	yes
0.0000000000	maintenance
0.0000000000	tracker
0.0000000000	thirdly
0.0000000000	translator
0.0000000000	offs
0.0000000000	status
0.0000000000	polish
0.0000000000	decoded
0.0000000000	snapshot
0.0000000000	orthographic
0.0000000000	agency
0.0000000000	european
0.0000000000	morpheme
0.0000000000	russian
0.0000000000	spanish
0.0000000000	czech
0.0000000000	subtraction
0.0000000000	lm
0.0000000000	bin
0.0000000000	arrival
0.0000000000	microphone
0.0000000000	reverberant
0.0000000000	endow
0.0000000000	ci
0.0000000000	analytics
0.0000000000	sql
0.0000000000	slots
0.0000000000	seamlessly
0.0000000000	abstracted
0.0000000000	column
0.0000000000	master
0.0000000000	salience
0.0000000000	books
0.0000000000	dominated
0.0000000000	rc
0.0000000000	expanded
0.0000000000	expand
0.0000000000	reproducible
0.0000000000	barriers
0.0000000000	party
0.0000000000	predictability
0.0000000000	lex
0.0000000000	powers
0.0000000000	assistant
0.0000000000	kit
0.0000000000	underlies
0.0000000000	extensible
0.0000000000	visualise
0.0000000000	emerge
0.0000000000	clearer
0.0000000000	obstacles
0.0000000000	actors
0.0000000000	referents
0.0000000000	locate
0.0000000000	0.7
0.0000000000	fulfilled
0.0000000000	stated
0.0000000000	fulfillment
0.0000000000	gold
0.0000000000	narratives
0.0000000000	genres
0.0000000000	affective
0.0000000000	narrative
0.0000000000	desires
0.0000000000	emotion
0.0000000000	distribute
0.0000000000	changed
0.0000000000	snippets
0.0000000000	substrings
0.0000000000	foresee
0.0000000000	ontologies
0.0000000000	copy
0.0000000000	interestingness
0.0000000000	900
0.0000000000	bioasq
0.0000000000	biomedicine
0.0000000000	ca
0.0000000000	aid
0.0000000000	chaos
0.0000000000	benefited
0.0000000000	paraphrase
0.0000000000	relatedness
0.0000000000	biomedical
0.0000000000	rte
0.0000000000	islands
0.0000000000	rethinking
0.0000000000	calibrated
0.0000000000	outstanding
0.0000000000	enriching
0.0000000000	linking
0.0000000000	hierarchies
0.0000000000	slu
0.0000000000	detects
0.0000000000	nlu
0.0000000000	simplifications
0.0000000000	usages
0.0000000000	grammar
0.0000000000	really
0.0000000000	fluent
0.0000000000	meet
0.0000000000	impairments
0.0000000000	synergies
0.0000000000	partly
0.0000000000	arisen
0.0000000000	organised
0.0000000000	percentage
0.0000000000	referring
0.0000000000	undergone
0.0000000000	identifiers
0.0000000000	timely
0.0000000000	puts
0.0000000000	github
0.0000000000	crawled
0.0000000000	nlg
0.0000000000	release
0.0000000000	repositories
0.0000000000	idiomatic
0.0000000000	statement
0.0000000000	conceived
0.0000000000	typed
0.0000000000	documentation
0.0000000000	pedagogical
0.0000000000	triggered
0.0000000000	productivity
0.0000000000	extensibility
0.0000000000	modularity
0.0000000000	toolkit
0.0000000000	pointer
0.0000000000	unaligned
0.0000000000	started
0.0000000000	taggers
0.0000000000	returned
0.0000000000	filling
0.0000000000	slot
0.0000000000	synthetically
0.0000000000	inflection
0.0000000000	abstractive
0.0000000000	unpaired
0.0000000000	assigns
0.0000000000	treating
0.0000000000	tackles
0.0000000000	marginalization
0.0000000000	overcomes
0.0000000000	resolve
0.0000000000	evidences
0.0000000000	tweets
0.0000000000	transduction
0.0000000000	tweet
0.0000000000	statements
0.0000000000	shortening
0.0000000000	entailed
0.0000000000	rouge
0.0000000000	retraining
0.0000000000	2.7
0.0000000000	pruned
0.0000000000	200
0.0000000000	thresholds
0.0000000000	stakeholders
0.0000000000	isolate
0.0000000000	chord
0.0000000000	nmt
0.0000000000	nesting
0.0000000000	noticed
0.0000000000	formulae
0.0000000000	functionality
0.0000000000	oov
0.0000000000	extractions
0.0000000000	regardless
0.0000000000	picks
0.0000000000	validity
0.0000000000	shortest
0.0000000000	kbs
0.0000000000	grasping
0.0000000000	ie
0.0000000000	chains
0.0000000000	satisfied
0.0000000000	indicative
0.0000000000	leaf
0.0000000000	focal
0.0000000000	severity
0.0000000000	rst
0.0000000000	parse
0.0000000000	contradiction
0.0000000000	mismatches
0.0000000000	emphasis
0.0000000000	premise
0.0000000000	snli
0.0000000000	nli
0.0000000000	contextualized
0.0000000000	granularity
0.0000000000	reordering
0.0000000000	axes
0.0000000000	senses
0.0000000000	facilitating
0.0000000000	constituents
0.0000000000	contents
0.0000000000	styles
0.0000000000	personas
0.0000000000	comprehend
0.0000000000	promotes
0.0000000000	hamming
0.0000000000	smt
0.0000000000	devise
0.0000000000	grammatically
0.0000000000	microblogging
0.0000000000	realized
0.0000000000	landmark
0.0000000000	formalizes
0.0000000000	connects
0.0000000000	nrm
0.0000000000	deformation
0.0000000000	excessive
0.0000000000	contributing
0.0000000000	responding
0.0000000000	mallat
0.0000000000	discards
0.0000000000	allocating
0.0000000000	sparsification
0.0000000000	lee
0.0000000000	analysing
0.0000000000	workload
0.0000000000	confident
0.0000000000	participants
0.0000000000	agreement
0.0000000000	international
0.0000000000	informatics
0.0000000000	rotational
0.0000000000	nmf
0.0000000000	keep
0.0000000000	crowdsourcing
0.0000000000	zoo
0.0000000000	hyperspectral
0.0000000000	unmixing
0.0000000000	nonnegative
0.0000000000	permitted
0.0000000000	resulted
0.0000000000	sky
0.0000000000	uncovering
0.0000000000	galaxies
0.0000000000	underestimated
0.0000000000	investigates
0.0000000000	sustained
0.0000000000	questioned
0.0000000000	marked
0.0000000000	galaxy
0.0000000000	examined
0.0000000000	aforementioned
0.0000000000	uniform
0.0000000000	delay
0.0000000000	incur
0.0000000000	babel
0.0000000000	defining
0.0000000000	rapid
0.0000000000	plateaus
0.0000000000	orthogonality
0.0000000000	dictionaries
0.0000000000	overcomplete
0.0000000000	reasonably
0.0000000000	matrixes
0.0000000000	his
0.0000000000	lrr
0.0000000000	he
0.0000000000	payoff
0.0000000000	firing
0.0000000000	offline
0.0000000000	glm
0.0000000000	operate
0.0000000000	provably
0.0000000000	lays
0.0000000000	succeeds
0.0000000000	uncovers
0.0000000000	isolated
0.0000000000	insensitivity
0.0000000000	monotonic
0.0000000000	infinity
0.0000000000	minimizer
0.0000000000	suggestion
0.0000000000	et.al
0.0000000000	pioneered
0.0000000000	kernels
0.0000000000	subtasks
0.0000000000	centers
0.0000000000	deviate
0.0000000000	accepted
0.0000000000	predefined
0.0000000000	discretizing
0.0000000000	water
0.0000000000	scientifically
0.0000000000	landscape
0.0000000000	brings
0.0000000000	temperature
0.0000000000	lake
0.0000000000	importantly
0.0000000000	ranging
0.0000000000	covering
0.0000000000	expressivity
0.0000000000	decomposable
0.0000000000	demo
0.0000000000	pushes
0.0000000000	investigated
0.0000000000	bros
0.0000000000	vizdoom
0.0000000000	ignores
0.0000000000	critically
0.0000000000	bypasses
0.0000000000	trivial
0.0000000000	restarts
0.0000000000	boosted
0.0000000000	sigma
0.0000000000	j
0.0000000000	mathbf
0.0000000000	monocular
0.0000000000	majorization
0.0000000000	controllable
0.0000000000	spurious
0.0000000000	regularizations
0.0000000000	justifies
0.0000000000	convnets
0.0000000000	recovery
0.0000000000	partitions
0.0000000000	capped
0.0000000000	smoothness
0.0000000000	simulations
0.0000000000	adience
0.0000000000	partitioned
0.0000000000	swapping
0.0000000000	supercomputers
0.0000000000	evaluates
0.0000000000	farm
0.0000000000	economical
0.0000000000	commodity
0.0000000000	pushed
0.0000000000	gaussians
0.0000000000	judged
0.0000000000	nash
0.0000000000	converges
0.0000000000	spark
0.0000000000	apache
0.0000000000	delta
0.0000000000	hyperplane
0.0000000000	separating
0.0000000000	promote
0.0000000000	decomposed
0.0000000000	milliseconds
0.0000000000	mad
0.0000000000	identifiable
0.0000000000	fake
0.0000000000	conditionally
0.0000000000	cast
0.0000000000	let
0.0000000000	milestone
0.0000000000	inefficient
0.0000000000	personalized
0.0000000000	alter
0.0000000000	holy
0.0000000000	colorization
0.0000000000	tradeoffs
0.0000000000	potentials
0.0000000000	helped
0.0000000000	appeared
0.0000000000	labelings
0.0000000000	daunting
0.0000000000	production
0.0000000000	enjoys
0.0000000000	coordinated
0.0000000000	capacities
0.0000000000	society
0.0000000000	exponentially
0.0000000000	subsets
0.0000000000	meets
0.0000000000	submodular
0.0000000000	awa
0.0000000000	quadratic
0.0000000000	regularities
0.0000000000	inventories
0.0000000000	specialization
0.0000000000	simplex
0.0000000000	atoms
0.0000000000	characterizations
0.0000000000	separation
0.0000000000	fw
0.0000000000	concave
0.0000000000	wolfe
0.0000000000	frank
0.0000000000	lossless
0.0000000000	archives
0.0000000000	fortunately
0.0000000000	flawed
0.0000000000	mistake
0.0000000000	kitchen
0.0000000000	fixes
0.0000000000	fallacies
0.0000000000	flaws
0.0000000000	retailers
0.0000000000	edited
0.0000000000	suppliers
0.0000000000	cheap
0.0000000000	vehicle
0.0000000000	occupies
0.0000000000	foundational
0.0000000000	forecasting
0.0000000000	customer
0.0000000000	catalogue
0.0000000000	commerce
0.0000000000	organization
0.0000000000	personalisation
0.0000000000	characterisation
0.0000000000	aurora
0.0000000000	engaging
0.0000000000	investigating
0.0000000000	deteriorate
0.0000000000	auditory
0.0000000000	exclusively
0.0000000000	speakers
0.0000000000	day
0.0000000000	ensuring
0.0000000000	recording
0.0000000000	socially
0.0000000000	prerequisite
0.0000000000	american
0.0000000000	north
0.0000000000	recorded
0.0000000000	executed
0.0000000000	legends
0.0000000000	league
0.0000000000	partner
0.0000000000	observes
0.0000000000	slang
0.0000000000	surrounding
0.0000000000	exciting
0.0000000000	portals
0.0000000000	sports
0.0000000000	reactions
0.0000000000	audience
0.0000000000	affordance
0.0000000000	reproduce
0.0000000000	concretely
0.0000000000	blackbox
0.0000000000	cooperation
0.0000000000	quantifiable
0.0000000000	ambiguous
0.0000000000	coverage
0.0000000000	supplementary
0.0000000000	consensus
0.0000000000	curated
0.0000000000	recommended
0.0000000000	repertoire
0.0000000000	members
0.0000000000	exemplify
0.0000000000	teams
0.0000000000	try
0.0000000000	teamwork
0.0000000000	collaboration
0.0000000000	steadily
0.0000000000	progresses
0.0000000000	affordances
0.0000000000	gestures
0.0000000000	proportions
0.0000000000	mixing
0.0000000000	movies
0.0000000000	wikipedia
0.0000000000	plot
0.0000000000	multiplicity
0.0000000000	typing
0.0000000000	25
0.0000000000	collocation
0.0000000000	breakthroughs
0.0000000000	proofs
0.0000000000	dissertation
0.0000000000	linked
0.0000000000	staying
0.0000000000	starts
0.0000000000	envision
0.0000000000	sectors
0.0000000000	cars
0.0000000000	mitigation
0.0000000000	cumbersome
0.0000000000	gaze
0.0000000000	ordered
0.0000000000	renders
0.0000000000	malware
0.0000000000	anti
0.0000000000	misclassify
0.0000000000	attackers
0.0000000000	isomap
0.0000000000	category
0.0000000000	public
0.0000000000	site
0.0000000000	demonstrator
0.0000000000	sweeping
0.0000000000	household
0.0000000000	observing
0.0000000000	gaps
0.0000000000	embodiment
0.0000000000	compensating
0.0000000000	propagating
0.0000000000	mature
0.0000000000	lengths
0.0000000000	stands
0.0000000000	tuples
0.0000000000	demonstrations
0.0000000000	unavailable
0.0000000000	collapses
0.0000000000	avoided
0.0000000000	degenerate
0.0000000000	imitate
0.0000000000	pie
0.0000000000	40
0.0000000000	equilibria
0.0000000000	undesirable
0.0000000000	arabic
0.0000000000	arithmetic
0.0000000000	steering
0.0000000000	sixth
0.0000000000	regularisation
0.0000000000	fifth
0.0000000000	mounted
0.0000000000	six
0.0000000000	voting
0.0000000000	centric
0.0000000000	forwarding
0.0000000000	occlusions
0.0000000000	natively
0.0000000000	plus
0.0000000000	minimisation
0.0000000000	unsolved
0.0000000000	formulate
0.0000000000	distinguished
0.0000000000	framing
0.0000000000	enforcing
0.0000000000	strides
0.0000000000	indication
0.0000000000	belonging
0.0000000000	preferably
0.0000000000	plant
0.0000000000	termed
0.0000000000	apart
0.0000000000	favourably
0.0000000000	distinguishability
0.0000000000	junction
0.0000000000	busy
0.0000000000	seeing
0.0000000000	foundation
0.0000000000	mastering
0.0000000000	suffices
0.0000000000	occluded
0.0000000000	visible
0.0000000000	deploys
0.0000000000	surroundings
0.0000000000	creates
0.0000000000	actuator
0.0000000000	fishing
0.0000000000	locomotion
0.0000000000	omnidirectional
0.0000000000	kinematics
0.0000000000	setups
0.0000000000	correspondences
0.0000000000	pa
0.0000000000	triggers
0.0000000000	competence
0.0000000000	cally
0.0000000000	products
0.0000000000	selling
0.0000000000	usefulness
0.0000000000	cosine
0.0000000000	consisted
0.0000000000	heterogeneous
0.0000000000	integer
0.0000000000	enumeration
0.0000000000	bounded
0.0000000000	strictly
0.0000000000	refining
0.0000000000	r
0.0000000000	acting
0.0000000000	rewiring
0.0000000000	obvious
0.0000000000	bounding
0.0000000000	damages
0.0000000000	seconds
0.0000000000	legged
0.0000000000	damaged
0.0000000000	planar
0.0000000000	dof
0.0000000000	swing
0.0000000000	fits
0.0000000000	inaccuracies
0.0000000000	cores
0.0000000000	drops
0.0000000000	alternate
0.0000000000	crash
0.0000000000	illustrating
0.0000000000	coefficient
0.0000000000	polynomial
0.0000000000	pessimistic
0.0000000000	running
0.0000000000	crashes
0.0000000000	upper
0.0000000000	root
0.0000000000	featured
0.0000000000	impossibility
0.0000000000	explosion
0.0000000000	combinatorial
0.0000000000	hits
0.0000000000	venture
0.0000000000	complimentary
0.0000000000	python
0.0000000000	failures
0.0000000000	textit
0.0000000000	rising
0.0000000000	voices
0.0000000000	mission
0.0000000000	library
0.0000000000	trpo
0.0000000000	ddpg
0.0000000000	cycle
0.0000000000	injection
0.0000000000	28
0.0000000000	malaria
0.0000000000	engage
0.0000000000	14
0.0000000000	reproduced
0.0000000000	satisfactory
0.0000000000	molecules
0.0000000000	novo
0.0000000000	libraries
0.0000000000	focussed
0.0000000000	shake
0.0000000000	densenets
0.0000000000	ensembling
0.0000000000	complementarity
0.0000000000	cerebral
0.0000000000	criticism
0.0000000000	trajectory
0.0000000000	checks
0.0000000000	decaying
0.0000000000	conducts
0.0000000000	2012
0.0000000000	2007
0.0000000000	voc
0.0000000000	pascal
0.0000000000	leaky
0.0000000000	turns
0.0000000000	optima
0.0000000000	averaging
0.0000000000	collected
0.0000000000	alzheimer
0.0000000000	supervise
0.0000000000	emphasized
0.0000000000	visuomotor
0.0000000000	developmental
0.0000000000	localization
0.0000000000	ego
0.0000000000	disconnected
0.0000000000	varied
0.0000000000	naturalistic
0.0000000000	implements
0.0000000000	formalize
0.0000000000	amazing
0.0000000000	implications
0.0000000000	curiosity
0.0000000000	welling
0.0000000000	surpassing
0.0000000000	grained
0.0000000000	resnext
0.0000000000	measurement
0.0000000000	sinogram
0.0000000000	searches
0.0000000000	twin
0.0000000000	streaking
0.0000000000	discovered
0.0000000000	dl
0.0000000000	sacrificing
0.0000000000	hankel
0.0000000000	cascaded
0.0000000000	explosive
0.0000000000	transportation
0.0000000000	derives
0.0000000000	plane
0.0000000000	redundancy
0.0000000000	interpolates
0.0000000000	psnr
0.0000000000	ensure
0.0000000000	perfect
0.0000000000	fbp
0.0000000000	cs
0.0000000000	diagnostic
0.0000000000	scanner
0.0000000000	9
0.0000000000	blurry
0.0000000000	penalized
0.0000000000	radon
0.0000000000	lobe
0.0000000000	null
0.0000000000	artifacts
0.0000000000	radiation
0.0000000000	roi
0.0000000000	ultra
0.0000000000	portable
0.0000000000	equally
0.0000000000	interior
0.0000000000	exogenous
0.0000000000	live
0.0000000000	phantoms
0.0000000000	fragmented
0.0000000000	ultrasound
0.0000000000	rf
0.0000000000	media
0.0000000000	photons
0.0000000000	nir
0.0000000000	gets
0.0000000000	infrared
0.0000000000	breaks
0.0000000000	integral
0.0000000000	anomalies
0.0000000000	scattering
0.0000000000	transferable
0.0000000000	bn
0.0000000000	400
0.0000000000	tomography
0.0000000000	diffuse
0.0000000000	migration
0.0000000000	photon
0.0000000000	player
0.0000000000	defeat
0.0000000000	confirms
0.0000000000	perspectives
0.0000000000	moves
0.0000000000	extensions
0.0000000000	implying
0.0000000000	parameterization
0.0000000000	translational
0.0000000000	favoured
0.0000000000	corroborated
0.0000000000	alphago
0.0000000000	playing
0.0000000000	isotropic
0.0000000000	equilibrium
0.0000000000	equation
0.0000000000	differential
0.0000000000	approximating
0.0000000000	endpoint
0.0000000000	othello
0.0000000000	disentanglement
0.0000000000	pool
0.0000000000	transferability
0.0000000000	disjoint
0.0000000000	reflected
0.0000000000	requisite
0.0000000000	altering
0.0000000000	influenced
0.0000000000	list
0.0000000000	simplifying
0.0000000000	drawings
0.0000000000	firm
0.0000000000	7.5
0.0000000000	processors
0.0000000000	asic
0.0000000000	fpga
0.0000000000	configurable
0.0000000000	exchangeable
0.0000000000	rigor
0.0000000000	unimodal
0.0000000000	negligible
0.0000000000	extractors
0.0000000000	dataflow
0.0000000000	n2
0.0000000000	fft
0.0000000000	fourier
0.0000000000	circulant
0.0000000000	ratio
0.0000000000	audiovisual
0.0000000000	irregular
0.0000000000	drawbacks
0.0000000000	1d
0.0000000000	ratios
0.0000000000	discussions
0.0000000000	grow
0.0000000000	appendix
0.0000000000	continues
0.0000000000	section
0.0000000000	compressing
0.0000000000	focusing
0.0000000000	cover
0.0000000000	streams
0.0000000000	camera
0.0000000000	brief
0.0000000000	included
0.0000000000	primitive
0.0000000000	demand
0.0000000000	convolved
0.0000000000	creation
0.0000000000	robotics
0.0000000000	recovered
0.0000000000	won
0.0000000000	primitives
0.0000000000	ray
0.0000000000	reformulate
0.0000000000	duality
0.0000000000	conjugate
0.0000000000	suffers
0.0000000000	framelets
0.0000000000	ct
0.0000000000	dose
0.0000000000	wavelet
0.0000000000	coherently
0.0000000000	wasserstein
0.0000000000	factorizes
0.0000000000	collapse
0.0000000000	mini
0.0000000000	interventions
0.0000000000	hamiltonian
0.0000000000	positively
0.0000000000	recovering
0.0000000000	discriminate
0.0000000000	asymmetry
0.0000000000	unrelated
0.0000000000	seemingly
0.0000000000	resp
0.0000000000	datapoints
0.0000000000	lipschitz
0.0000000000	topology
0.0000000000	safety
0.0000000000	brittle
0.0000000000	transductive
0.0000000000	induce
0.0000000000	smoothing
0.0000000000	approaching
0.0000000000	angle
0.0000000000	explained
0.0000000000	endowed
0.0000000000	maximally
0.0000000000	neighborhood
0.0000000000	analogous
0.0000000000	stage
0.0000000000	testable
0.0000000000	tracks
0.0000000000	arrived
0.0000000000	driving
0.0000000000	programs
0.0000000000	decent
0.0000000000	mpi
0.0000000000	prepared
0.0000000000	ck
0.0000000000	kanade
0.0000000000	cohn
0.0000000000	enforced
0.0000000000	adversary
0.0000000000	inexact
0.0000000000	decoupling
0.0000000000	src
0.0000000000	understood
0.0000000000	disentangling
0.0000000000	multichannel
0.0000000000	genuine
0.0000000000	distinguishing
0.0000000000	confounding
0.0000000000	subnetwork
0.0000000000	detector
0.0000000000	demanding
0.0000000000	tremendously
0.0000000000	advanced
0.0000000000	enhancements
0.0000000000	break
0.0000000000	outlines
0.0000000000	boundary
0.0000000000	taken
0.0000000000	eye
0.0000000000	albeit
0.0000000000	yelp
0.0000000000	reviewer
0.0000000000	uploaded
0.0000000000	misclassified
0.0000000000	causes
0.0000000000	recommending
0.0000000000	tag
0.0000000000	factoring
0.0000000000	tightening
0.0000000000	descriptiveness
0.0000000000	averages
0.0000000000	official
0.0000000000	bags
0.0000000000	hundreds
0.0000000000	abnormal
0.0000000000	fall
0.0000000000	centroid
0.0000000000	closest
0.0000000000	varies
0.0000000000	closeness
0.0000000000	wearable
0.0000000000	falls
0.0000000000	giving
0.0000000000	uncontrolled
0.0000000000	head
0.0000000000	mel
0.0000000000	sheds
0.0000000000	normals
0.0000000000	spanned
0.0000000000	sphere
0.0000000000	solved
0.0000000000	spaced
0.0000000000	screens
0.0000000000	symmetry
0.0000000000	greatest
0.0000000000	screen
0.0000000000	locality
0.0000000000	preserve
0.0000000000	screening
0.0000000000	anatomy
0.0000000000	justify
0.0000000000	formal
0.0000000000	cognition
0.0000000000	standing
0.0000000000	composite
0.0000000000	transforms
0.0000000000	pipeline
0.0000000000	arxiv
0.0000000000	please
0.0000000000	ethnicity
0.0000000000	age
0.0000000000	emotions
0.0000000000	explores
0.0000000000	thesis
0.0000000000	heuristics
0.0000000000	physiological
0.0000000000	quite
0.0000000000	conveys
0.0000000000	alm
0.0000000000	multipliers
0.0000000000	lagrange
0.0000000000	restrict
0.0000000000	magnitudes
0.0000000000	eigenvalue
0.0000000000	singular
0.0000000000	quantified
0.0000000000	substitute
0.0000000000	nuclear
0.0000000000	np
0.0000000000	separability
0.0000000000	trades
0.0000000000	hilbert
0.0000000000	geometrical
0.0000000000	sca
0.0000000000	concerned
0.0000000000	closely
0.0000000000	scatter
0.0000000000	ingredient
0.0000000000	analogs
0.0000000000	transform
0.0000000000	appearance
0.0000000000	substituting
0.0000000000	closed
0.0000000000	torques
0.0000000000	manipulator
0.0000000000	observational
0.0000000000	coarsening
0.0000000000	micro
0.0000000000	accounts
0.0000000000	perceiving
0.0000000000	tagging
0.0000000000	robots
0.0000000000	rigorous
0.0000000000	histology
0.0000000000	cancer
0.0000000000	kidney
0.0000000000	ovarian
0.0000000000	depends
0.0000000000	temporally
0.0000000000	iid
0.0000000000	maximized
0.0000000000	projection
0.0000000000	lvms
0.0000000000	lvm
0.0000000000	favorably
0.0000000000	compares
0.0000000000	pooled
0.0000000000	bird
0.0000000000	th
0.0000000000	faceted
0.0000000000	methodological
0.0000000000	treatments
0.0000000000	disease
0.0000000000	organs
0.0000000000	tissues
0.0000000000	molecular
0.0000000000	triplet
0.0000000000	cellular
0.0000000000	pathological
0.0000000000	sensors
0.0000000000	suggestions
0.0000000000	implies
0.0000000000	entries
0.0000000000	multiclass
0.0000000000	fitted
0.0000000000	validating
0.0000000000	methodologies
0.0000000000	broadcast
0.0000000000	hr
0.0000000000	calculations
0.0000000000	confronted
0.0000000000	pictures
0.0000000000	curved
0.0000000000	solvers
0.0000000000	employment
0.0000000000	principal
0.0000000000	bfgs
0.0000000000	l
0.0000000000	krylov
0.0000000000	der
0.0000000000	worth
0.0000000000	picture
0.0000000000	cdl
0.0000000000	moduli
0.0000000000	preconditioning
0.0000000000	mechanics
0.0000000000	lattice
0.0000000000	accelerating
0.0000000000	quantum
0.0000000000	renormalization
0.0000000000	born
0.0000000000	arising
0.0000000000	vertices
0.0000000000	acyclic
0.0000000000	couples
0.0000000000	begins
0.0000000000	ctr
0.0000000000	utilized
0.0000000000	sole
0.0000000000	highlights
0.0000000000	arriving
0.0000000000	robot
0.0000000000	chosen
0.0000000000	newly
0.0000000000	occurrences
0.0000000000	referent
0.0000000000	frequencies
0.0000000000	situational
0.0000000000	exposures
0.0000000000	disambiguating
0.0000000000	sensorimotor
0.0000000000	species
0.0000000000	sensory
0.0000000000	exposed
0.0000000000	generality
0.0000000000	generalizable
0.0000000000	lies
0.0000000000	lexicons
0.0000000000	empowers
0.0000000000	tactile
0.0000000000	innovative
0.0000000000	body
0.0000000000	preservation
0.0000000000	copyright
0.0000000000	translates
0.0000000000	security
0.0000000000	nowadays
0.0000000000	constantly
0.0000000000	attribution
0.0000000000	authorship
0.0000000000	spread
0.0000000000	viewpoint
0.0000000000	legitimate
0.0000000000	raise
0.0000000000	deception
0.0000000000	digital
0.0000000000	availability
0.0000000000	querying
0.0000000000	deleting
0.0000000000	radial
0.0000000000	identifier
0.0000000000	semantical
0.0000000000	degrading
0.0000000000	realizing
0.0000000000	comparative
0.0000000000	counting
0.0000000000	calculating
0.0000000000	asks
0.0000000000	navigational
0.0000000000	walk
0.0000000000	aqm
0.0000000000	owing
0.0000000000	mcb
0.0000000000	robustly
0.0000000000	mind
0.0000000000	draw
0.0000000000	disentangles
0.0000000000	amt
0.0000000000	turk
0.0000000000	mechanical
0.0000000000	restrictions
0.0000000000	exchanged
0.0000000000	dialogs
0.0000000000	canvas
0.0000000000	empty
0.0000000000	reconstruct
0.0000000000	tries
0.0000000000	configuration
0.0000000000	arts
0.0000000000	sees
0.0000000000	movable
0.0000000000	degrades
0.0000000000	cp
0.0000000000	v2
0.0000000000	geared
0.0000000000	drawing
0.0000000000	protocols
0.0000000000	commonsense
0.0000000000	egocentric
0.0000000000	gather
0.0000000000	navigate
0.0000000000	car
0.0000000000	spawned
0.0000000000	don
0.0000000000	half
0.0000000000	listening
0.0000000000	embodied
0.0000000000	jump
0.0000000000	sufficiently
0.0000000000	myopic
0.0000000000	9x
0.0000000000	today
0.0000000000	2016
0.0000000000	entry
0.0000000000	winning
0.0000000000	accelerate
0.0000000000	seldom
0.0000000000	eliminating
0.0000000000	lie
0.0000000000	unnatural
0.0000000000	malicious
0.0000000000	exposing
0.0000000000	helpful
0.0000000000	composes
0.0000000000	photos
0.0000000000	storytelling
0.0000000000	album
0.0000000000	msr
0.0000000000	contradictions
0.0000000000	matches
0.0000000000	logically
0.0000000000	cider
0.0000000000	corrects
0.0000000000	mixed
0.0000000000	reinforced
0.0000000000	degraded
0.0000000000	divided
0.0000000000	entirely
0.0000000000	mis
0.0000000000	specially
0.0000000000	attacker
0.0000000000	layout
0.0000000000	strategically
0.0000000000	columns
0.0000000000	rows
0.0000000000	kept
0.0000000000	usual
0.0000000000	complement
0.0000000000	sparsified
0.0000000000	website
0.0000000000	indicator
0.0000000000	faithful
0.0000000000	alleviated
0.0000000000	re
0.0000000000	doing
0.0000000000	compositionally
0.0000000000	attained
0.0000000000	superficial
0.0000000000	couple
0.0000000000	split
0.0000000000	team
0.0000000000	informative
0.0000000000	strive
0.0000000000	essentially
0.0000000000	lately
0.0000000000	start
0.0000000000	invent
0.0000000000	bots
0.0000000000	z
0.0000000000	lessons
0.0000000000	constructively
0.0000000000	pure
0.0000000000	demonstration
0.0000000000	check
0.0000000000	putting
0.0000000000	guessing
0.0000000000	db
0.0000000000	snr
0.0000000000	late
0.0000000000	upto
0.0000000000	chat
0.0000000000	person
0.0000000000	gmm
0.0000000000	fused
0.0000000000	av
0.0000000000	mtl
0.0000000000	downstream
0.0000000000	analyses
0.0000000000	striking
0.0000000000	interpreting
0.0000000000	advocate
0.0000000000	splits
0.0000000000	compositions
0.0000000000	begin
0.0000000000	excels
0.0000000000	aiming
0.0000000000	again
0.0000000000	pools
0.0000000000	sequencing
0.0000000000	70
0.0000000000	clustered
0.0000000000	captions
0.0000000000	believes
0.0000000000	sorting
0.0000000000	sort
0.0000000000	protocol
0.0000000000	prominent
0.0000000000	worse
0.0000000000	intelligent
0.0000000000	dream
0.0000000000	ended
0.0000000000	2nd
0.0000000000	balanced
0.0000000000	counts
0.0000000000	replies
0.0000000000	perceived
0.0000000000	counter
0.0000000000	inflated
0.0000000000	inherent
0.0000000000	intersection
0.0000000000	scenes
0.0000000000	suite
0.0000000000	evenly
0.0000000000	converts
0.0000000000	judgments
0.0000000000	record
0.0000000000	overlap
0.0000000000	repetition
0.0000000000	irregularities
0.0000000000	arrange
0.0000000000	me
0.0000000000	pipelined
0.0000000000	cmu
0.0000000000	subjectivity
0.0000000000	attends
0.0000000000	finer
0.0000000000	facial
0.0000000000	avenues
0.0000000000	contrary
0.0000000000	publications
0.0000000000	youtube
0.0000000000	hungry
0.0000000000	popularity
0.0000000000	summarisation
0.0000000000	extractive
0.0000000000	interpolating
0.0000000000	intent
0.0000000000	entangled
0.0000000000	setup
0.0000000000	mild
0.0000000000	certainty
0.0000000000	multitasking
0.0000000000	partition
0.0000000000	mislead
0.0000000000	collectively
0.0000000000	uncertain
0.0000000000	adversely
0.0000000000	ideal
0.0000000000	arcade
0.0000000000	shaping
0.0000000000	grams
0.0000000000	word2vec
0.0000000000	uniquely
0.0000000000	geo
0.0000000000	jobs
0.0000000000	meanings
0.0000000000	mixtures
0.0000000000	executable
0.0000000000	pdtb
0.0000000000	discriminability
0.0000000000	encouraged
0.0000000000	syntax
0.0000000000	imitation
0.0000000000	connectives
0.0000000000	controls
0.0000000000	attribute
0.0000000000	designated
0.0000000000	disentangled
0.0000000000	connective
0.0000000000	manipulation
0.0000000000	worker
0.0000000000	crowd
0.0000000000	outperformed
0.0000000000	modifying
0.0000000000	vowel
0.0000000000	japanese
0.0000000000	definition
0.0000000000	separable
0.0000000000	linearly
0.0000000000	neutral
0.0000000000	captured
0.0000000000	geometrically
0.0000000000	widespread
0.0000000000	concerns
0.0000000000	phonemes
0.0000000000	hierarchically
0.0000000000	disturbing
0.0000000000	stereotypes
0.0000000000	male
0.0000000000	female
0.0000000000	transfers
0.0000000000	distillation
0.0000000000	inferring
0.0000000000	declarative
0.0000000000	enhancing
0.0000000000	simultaneous
0.0000000000	sampler
0.0000000000	gibbs
0.0000000000	blocked
0.0000000000	johnson
0.0000000000	hsmm
0.0000000000	hdp
0.0000000000	logic
0.0000000000	educational
0.0000000000	integrative
0.0000000000	mooc
0.0000000000	unsegmented
0.0000000000	track
0.0000000000	bonus
0.0000000000	instructor
0.0000000000	assigned
0.0000000000	nonparametrics
0.0000000000	uncover
0.0000000000	analyzer
0.0000000000	assign
0.0000000000	articulation
0.0000000000	double
0.0000000000	learners
0.0000000000	courses
0.0000000000	mathematics
0.0000000000	lab
0.0000000000	stem
0.0000000000	pytorch
0.0000000000	prominently
0.0000000000	figure
0.0000000000	kinds
0.0000000000	epochs
0.0000000000	62
0.0000000000	peak
0.0000000000	99
0.0000000000	schedules
0.0000000000	assignments
0.0000000000	assessments
0.0000000000	submission
0.0000000000	education
0.0000000000	schedule
0.0000000000	restart
0.0000000000	warm
0.0000000000	overfit
0.0000000000	8.5
0.0000000000	mb
0.0000000000	grading
0.0000000000	deviations
0.0000000000	sign
0.0000000000	simplifies
0.0000000000	orderings
0.0000000000	imposed
0.0000000000	predicates
0.0000000000	realizations
0.0000000000	ideally
0.0000000000	inducing
0.0000000000	spam
0.0000000000	membership
0.0000000000	simply
0.0000000000	intriguing
0.0000000000	gaming
0.0000000000	gave
0.0000000000	industry
0.0000000000	aimed
0.0000000000	replay
0.0000000000	technically
0.0000000000	88
0.0000000000	returning
0.0000000000	respond
0.0000000000	localizes
0.0000000000	toxicity
0.0000000000	string
0.0000000000	cheminformatics
0.0000000000	format
0.0000000000	smiles
0.0000000000	chemical
0.0000000000	consume
0.0000000000	phenomena
0.0000000000	localized
0.0000000000	devising
0.0000000000	allocation
0.0000000000	dirichlet
0.0000000000	sensible
0.0000000000	imdb
0.0000000000	extractor
0.0000000000	conjunctive
0.0000000000	cup
0.0000000000	participated
0.0000000000	players
0.0000000000	soccer
0.0000000000	merits
0.0000000000	remembering
0.0000000000	laser
0.0000000000	freedom
0.0000000000	relating
0.0000000000	danger
0.0000000000	amplifying
0.0000000000	runs
0.0000000000	blind
0.0000000000	solid
0.0000000000	proving
0.0000000000	induced
0.0000000000	relies
0.0000000000	syntactic
0.0000000000	crucially
0.0000000000	predictable
0.0000000000	debiasing
0.0000000000	programmer
0.0000000000	induction
0.0000000000	modifications
0.0000000000	horse
0.0000000000	riding
0.0000000000	man
0.0000000000	implied
0.0000000000	arrangement
0.0000000000	collective
0.0000000000	relaxation
0.0000000000	lagrangian
0.0000000000	calibrating
0.0000000000	table
0.0000000000	glass
0.0000000000	inject
0.0000000000	prepositions
0.0000000000	restricts
0.0000000000	68
0.0000000000	disparity
0.0000000000	below
0.0000000000	males
0.0000000000	females
0.0000000000	33
0.0000000000	acceptability
0.0000000000	cooking
0.0000000000	modulation
0.0000000000	amplify
0.0000000000	reaching
0.0000000000	multilabel
0.0000000000	occurring
0.0000000000	film
0.0000000000	sourced
0.0000000000	conditioning
0.0000000000	calls
0.0000000000	operated
0.0000000000	reasons
0.0000000000	light
0.0000000000	shed
0.0000000000	3.1
0.0000000000	templates
0.0000000000	2.4
0.0000000000	clevr
0.0000000000	diversity
0.0000000000	lens
0.0000000000	amplification
0.0000000000	gender
0.0000000000	reproducing
0.0000000000	shopping
0.0000000000	men
0.0000000000	adapted
0.0000000000	scaled
0.0000000000	verified
0.0000000000	reflect
0.0000000000	examining
0.0000000000	actually
0.0000000000	nodes
0.0000000000	unanswered
0.0000000000	derivatives
0.0000000000	rectifier
0.0000000000	progression
0.0000000000	correspondence
0.0000000000	restoring
0.0000000000	progressive
0.0000000000	centered
0.0000000000	patch
0.0000000000	dramatic
0.0000000000	convey
0.0000000000	supposed
0.0000000000	transformer
0.0000000000	dense
0.0000000000	resembles
0.0000000000	vaes
0.0000000000	exit
0.0000000000	variate
0.0000000000	celeba
0.0000000000	redesign
0.0000000000	attempting
0.0000000000	dilated
0.0000000000	vae
0.0000000000	editor
0.0000000000	introspective
0.0000000000	longitudinal
0.0000000000	detectors
0.0000000000	1.8
0.0000000000	0.5
0.0000000000	discriminating
0.0000000000	4.5
0.0000000000	establishes
0.0000000000	82
0.0000000000	69
0.0000000000	whenever
0.0000000000	overhead
0.0000000000	vgg
0.0000000000	infrastructure
0.0000000000	valid
0.0000000000	accelerometer
0.0000000000	wireless
0.0000000000	intra
0.0000000000	resnets
0.0000000000	therapy
0.0000000000	automation
0.0000000000	smm
0.0000000000	quantification
0.0000000000	visibility
0.0000000000	movements
0.0000000000	atypical
0.0000000000	disorders
0.0000000000	spectrum
0.0000000000	standalone
0.0000000000	encounters
0.0000000000	autism
0.0000000000	movement
0.0000000000	motor
0.0000000000	stereotypical
0.0000000000	svhn
0.0000000000	evident
0.0000000000	resilient
0.0000000000	companion
0.0000000000	steepest
0.0000000000	rescaling
0.0000000000	geometry
0.0000000000	looked
0.0000000000	revisit
0.0000000000	studying
0.0000000000	transparent
0.0000000000	dsn
0.0000000000	sgd
0.0000000000	stl
0.0000000000	leaning
0.0000000000	actively
0.0000000000	earlier
0.0000000000	posteriori
0.0000000000	associates
0.0000000000	pathway
0.0000000000	multilayered
0.0000000000	supervisory
0.0000000000	missed
0.0000000000	detected
0.0000000000	pharmaceutical
0.0000000000	maxout
0.0000000000	sparser
0.0000000000	pca
0.0000000000	ica
0.0000000000	rbms
0.0000000000	argmax
0.0000000000	hat
0.0000000000	correctness
0.0000000000	proof
0.0000000000	normalized
0.0000000000	enforces
0.0000000000	threshold
0.0000000000	afterwards
0.0000000000	theta
0.0000000000	interference
0.0000000000	rare
0.0000000000	asynchronous
0.0000000000	said
0.0000000000	contours
0.0000000000	sg
0.0000000000	proved
0.0000000000	infrastructures
0.0000000000	versatile
0.0000000000	parallelization
0.0000000000	desire
0.0000000000	suppose
0.0000000000	era
0.0000000000	constraint
0.0000000000	emergence
0.0000000000	occurred
0.0000000000	favors
0.0000000000	backward
0.0000000000	trend
0.0000000000	2010
0.0000000000	until
0.0000000000	prevent
0.0000000000	strict
0.0000000000	imposes
0.0000000000	locking
0.0000000000	stringent
0.0000000000	fire
0.0000000000	wire
0.0000000000	cited
0.0000000000	hebbian
0.0000000000	e
0.0000000000	tang
0.0000000000	smith
0.0000000000	hi
0.0000000000	conventionally
0.0000000000	expresses
0.0000000000	linearity
0.0000000000	reliably
0.0000000000	follows
0.0000000000	dot
0.0000000000	ordinary
0.0000000000	endeavor
0.0000000000	obstacle
0.0000000000	interfaces
0.0000000000	benchmarking
0.0000000000	journey
0.0000000000	contexts
0.0000000000	benign
0.0000000000	rewarding
0.0000000000	advancements
0.0000000000	drives
0.0000000000	force
0.0000000000	quest
0.0000000000	unlikely
0.0000000000	svm
0.0000000000	perturbation
0.0000000000	cityscapes
0.0000000000	downsampled
0.0000000000	0.98
0.0000000000	attack
0.0000000000	0.92
0.0000000000	suffice
0.0000000000	fooling
0.0000000000	targeted
0.0000000000	presumably
0.0000000000	cultural
0.0000000000	maliciously
0.0000000000	resembling
0.0000000000	perturbed
0.0000000000	anatomical
0.0000000000	involved
0.0000000000	bio
0.0000000000	chance
0.0000000000	cdae
0.0000000000	perfectly
0.0000000000	mammalian
0.0000000000	tens
0.0000000000	63
0.0000000000	initialize
0.0000000000	subsequently
0.0000000000	placed
0.0000000000	hybridization
0.0000000000	situ
0.0000000000	paintings
0.0000000000	solver
0.0000000000	relied
0.0000000000	incorporated
0.0000000000	exhibits
0.0000000000	items
0.0000000000	nothing
0.0000000000	assembly
0.0000000000	item
0.0000000000	augmentations
0.0000000000	painter
0.0000000000	broader
0.0000000000	plausible
0.0000000000	36
0.0000000000	0.1
0.0000000000	alleviates
0.0000000000	puzzle
0.0000000000	0.3
0.0000000000	jigsaw
0.0000000000	poorly
0.0000000000	generalise
0.0000000000	underdetermined
0.0000000000	transferred
0.0000000000	3.6
0.0000000000	manually
0.0000000000	coupled
0.0000000000	tentative
0.0000000000	topologies
0.0000000000	transposition
0.0000000000	modularized
0.0000000000	imitates
0.0000000000	excellent
0.0000000000	interpret
0.0000000000	sigmoid
0.0000000000	logistic
0.0000000000	versa
0.0000000000	figures
0.0000000000	replicate
0.0000000000	facing
0.0000000000	hessian
0.0000000000	commonplace
0.0000000000	simplification
0.0000000000	homogeneous
0.0000000000	feasible
0.0000000000	hypothesize
0.0000000000	fraction
0.0000000000	artificially
0.0000000000	cyclical
0.0000000000	equivalent
0.0000000000	iterations
0.0000000000	suffered
0.0000000000	covariance
0.0000000000	expressed
0.0000000000	edges
0.0000000000	trick
0.0000000000	slight
0.0000000000	compromising
0.0000000000	plug
0.0000000000	deconvolution
0.0000000000	fresh
0.0000000000	sampled
0.0000000000	caused
0.0000000000	checkerboard
0.0000000000	omniglot
0.0000000000	prototypical
0.0000000000	statically
0.0000000000	branches
0.0000000000	routed
0.0000000000	deconvolutional
0.0000000000	indirect
0.0000000000	sounds
0.0000000000	routing
0.0000000000	deciding
0.0000000000	powered
0.0000000000	cv
0.0000000000	inferred
0.0000000000	langevin
0.0000000000	surrogates
0.0000000000	infers
0.0000000000	inferential
0.0000000000	parametrized
0.0000000000	fourth
0.0000000000	evolved
0.0000000000	mutation
0.0000000000	environmental
0.0000000000	dna
0.0000000000	drastically
0.0000000000	things
0.0000000000	weather
0.0000000000	generations
0.0000000000	measuring
0.0000000000	evolve
0.0000000000	synthesized
0.0000000000	scene
0.0000000000	http
0.0000000000	see
0.0000000000	validate
0.0000000000	darwin
0.0000000000	cloning
0.0000000000	photo
0.0000000000	stationarity
0.0000000000	never
0.0000000000	versions
0.0000000000	inside
0.0000000000	flows
0.0000000000	mediated
0.0000000000	convnet
0.0000000000	proxy
0.0000000000	worlds
0.0000000000	virtual
0.0000000000	route
0.0000000000	forests
0.0000000000	subgradient
0.0000000000	ssvm
0.0000000000	recover
0.0000000000	relaxing
0.0000000000	rendering
0.0000000000	restricted
0.0000000000	elusive
0.0000000000	unary
0.0000000000	interplay
0.0000000000	disregard
0.0000000000	abound
0.0000000000	intuitions
0.0000000000	super
0.0000000000	routinely
0.0000000000	pitch
0.0000000000	my
0.0000000000	happened
0.0000000000	bioinformatics
0.0000000000	nuisance
0.0000000000	grows
0.0000000000	additive
0.0000000000	modulate
0.0000000000	allowed
0.0000000000	reconstructions
0.0000000000	pressure
0.0000000000	relieve
0.0000000000	highest
0.0000000000	dae
0.0000000000	decay
0.0000000000	implementations
0.0000000000	fix
0.0000000000	lateral
0.0000000000	modulated
0.0000000000	explains
0.0000000000	style
0.0000000000	turing
0.0000000000	inspection
0.0000000000	resolves
0.0000000000	gradually
0.0000000000	adds
0.0000000000	multiply
0.0000000000	guide
0.0000000000	pathways
0.0000000000	encourage
0.0000000000	assessing
0.0000000000	descriptor
0.0000000000	stack
0.0000000000	impacting
0.0000000000	minimally
0.0000000000	invert
0.0000000000	sgan
0.0000000000	consequence
0.0000000000	decoupled
0.0000000000	snns
0.0000000000	converted
0.0000000000	decouples
0.0000000000	tiered
0.0000000000	impede
0.0000000000	positive
0.0000000000	responsibility
0.0000000000	motivate
0.0000000000	analog
0.0000000000	conversion
0.0000000000	negative
0.0000000000	atom
0.0000000000	molecule
0.0000000000	organic
0.0000000000	orientation
0.0000000000	inertia
0.0000000000	moment
0.0000000000	newtonian
0.0000000000	geometric
0.0000000000	harmonics
0.0000000000	spherical
0.0000000000	orientations
0.0000000000	equivariance
0.0000000000	permutations
0.0000000000	fcns
0.0000000000	precise
0.0000000000	matters
0.0000000000	seed
0.0000000000	scribbles
0.0000000000	pictorial
0.0000000000	hints
0.0000000000	clouds
0.0000000000	defaults
0.0000000000	equivariant
0.0000000000	fraud
0.0000000000	card
0.0000000000	fcn
0.0000000000	contractive
0.0000000000	unnecessary
0.0000000000	insignificant
0.0000000000	ignore
0.0000000000	discretization
0.0000000000	emphasizes
0.0000000000	later
0.0000000000	initially
0.0000000000	focuses
0.0000000000	principle
0.0000000000	cooperative
0.0000000000	famous
0.0000000000	pass
0.0000000000	storage
0.0000000000	algebra
0.0000000000	theorem
0.0000000000	1.1
0.0000000000	approximators
0.0000000000	zero
0.0000000000	convenience
0.0000000000	processed
0.0000000000	residuals
0.0000000000	achievable
0.0000000000	inherently
0.0000000000	inconsistency
0.0000000000	grand
0.0000000000	syndrome
0.0000000000	surveys
0.0000000000	advancement
0.0000000000	ui
0.0000000000	incremental
0.0000000000	hinder
0.0000000000	crafted
0.0000000000	decreases
0.0000000000	tremendous
0.0000000000	readings
0.0000000000	manageable
0.0000000000	profound
0.0000000000	regime
0.0000000000	exhibited
0.0000000000	classes
0.0000000000	confusing
0.0000000000	principally
0.0000000000	penalizes
0.0000000000	percent
0.0000000000	90
0.0000000000	reconstruction
0.0000000000	extending
0.0000000000	substantially
0.0000000000	rotated
0.0000000000	sensor
0.0000000000	incorrect
0.0000000000	generalizing
0.0000000000	12
0.0000000000	ilsvrc
0.0000000000	lending
0.0000000000	collect
0.0000000000	consuming
0.0000000000	rotation
0.0000000000	2d
0.0000000000	invariance
0.0000000000	accelerates
0.0000000000	hurting
0.0000000000	trains
0.0000000000	hurts
0.0000000000	numeric
0.0000000000	footprint
0.0000000000	targeting
0.0000000000	formulates
0.0000000000	inserted
0.0000000000	structural
0.0000000000	accomplished
0.0000000000	redundant
0.0000000000	member
0.0000000000	emerges
0.0000000000	intervention
0.0000000000	load
0.0000000000	radical
0.0000000000	practitioners
0.0000000000	widely
0.0000000000	reliability
0.0000000000	occlusion
0.0000000000	traversal
0.0000000000	parsimonious
0.0000000000	generalized
0.0000000000	dependency
0.0000000000	succinctness
0.0000000000	becomes
0.0000000000	correlations
0.0000000000	skeleton
0.0000000000	rectified
0.0000000000	utilising
0.0000000000	trade
0.0000000000	connection
0.0000000000	neuromorphic
0.0000000000	recognizable
0.0000000000	creative
0.0000000000	4
0.0000000000	somewhat
0.0000000000	harnessing
0.0000000000	activates
0.0000000000	aggregation
0.0000000000	maximization
0.0000000000	reveal
0.0000000000	scaling
0.0000000000	internally
0.0000000000	34
0.0000000000	110
0.0000000000	trajectories
0.0000000000	reused
0.0000000000	fascinating
0.0000000000	expect
0.0000000000	workings
0.0000000000	surprising
0.0000000000	options
0.0000000000	depend
0.0000000000	lesion
0.0000000000	vary
0.0000000000	spectral
0.0000000000	rewrite
0.0000000000	ideas
0.0000000000	seem
0.0000000000	differing
0.0000000000	requirements
0.0000000000	bandwidth
0.0000000000	massively
0.0000000000	skill
0.0000000000	technology
0.0000000000	mm
0.0000000000	manufactured
0.0000000000	o
0.0000000000	measurements
0.0000000000	silicon
0.0000000000	adopt
0.0000000000	acceleration
0.0000000000	residual
0.0000000000	superresolution
0.0000000000	approached
0.0000000000	ever
0.0000000000	cifar10
0.0000000000	spatio
0.0000000000	discovery
0.0000000000	option
0.0000000000	escape
0.0000000000	w
0.0000000000	matlab
0.0000000000	slows
0.0000000000	saddle
0.0000000000	curvature
0.0000000000	though
0.0000000000	proliferation
0.0000000000	minimizes
0.0000000000	coral
0.0000000000	limitation
0.0000000000	curb
0.0000000000	rational
0.0000000000	near
0.0000000000	unsuitable
0.0000000000	comprehensible
0.0000000000	months
0.0000000000	weeks
0.0000000000	damage
0.0000000000	shifts
0.0000000000	fails
0.0000000000	messages
0.0000000000	phases
0.0000000000	early
0.0000000000	fair
0.0000000000	regularizers
0.0000000000	ensures
0.0000000000	co
0.0000000000	concentration
0.0000000000	push
0.0000000000	shape
0.0000000000	miss
0.0000000000	unstable
0.0000000000	mpm
0.0000000000	facet
0.0000000000	topological
0.0000000000	dynamical
0.0000000000	activated
0.0000000000	accumulation
0.0000000000	consecutive
0.0000000000	wave
0.0000000000	delivered
0.0000000000	passing
0.0000000000	message
0.0000000000	implement
0.0000000000	reciprocal
0.0000000000	propositional
0.0000000000	transmitted
0.0000000000	affinities
0.0000000000	shorter
0.0000000000	stimulus
0.0000000000	preferred
0.0000000000	mlps
0.0000000000	thresholded
0.0000000000	bottom
0.0000000000	cards
0.0000000000	areas
0.0000000000	graphics
0.0000000000	v4
0.0000000000	v1
0.0000000000	functionally
0.0000000000	0.4
0.0000000000	quantifying
0.0000000000	dates
0.0000000000	others
0.0000000000	measures
0.0000000000	1998
0.0000000000	index
0.0000000000	rand
0.0000000000	broken
0.0000000000	ultimately
0.0000000000	segmentations
0.0000000000	indirectly
0.0000000000	misclassification
0.0000000000	edge
0.0000000000	sense
0.0000000000	graphs
0.0000000000	partitioning
0.0000000000	grouped
0.0000000000	committee
0.0000000000	segmented
0.0000000000	waves
0.0000000000	cortex
0.0000000000	selectivity
0.0000000000	decreasing
0.0000000000	quantity
0.0000000000	regularizes
0.0000000000	augmentation
0.0000000000	course
0.0000000000	hyperparameters
0.0000000000	unmodified
0.0000000000	correspond
0.0000000000	ensembles
0.0000000000	batch
0.0000000000	fractions
0.0000000000	affinity
0.0000000000	maximin
0.0000000000	correlates
0.0000000000	reliance
0.0000000000	jacobian
0.0000000000	compete
0.0000000000	inquiry
0.0000000000	measured
0.0000000000	connect
0.0000000000	meant
0.0000000000	vicinity
0.0000000000	highlighted
0.0000000000	hyper
0.0000000000	optimizers
0.0000000000	analyzes
0.0000000000	curriculum
0.0000000000	shot
0.0000000000	hold
0.0000000000	tension
0.0000000000	favor
0.0000000000	clearly
0.0000000000	conflict
0.0000000000	stable
0.0000000000	rademacher
0.0000000000	errors
0.0000000000	qualities
0.0000000000	theoretic
0.0000000000	prove
0.0000000000	confusion
0.0000000000	uncalibrated
0.0000000000	inaccurate
0.0000000000	dimensionality
0.0000000000	x
0.0000000000	emulation
0.0000000000	y
0.0000000000	97
0.0000000000	exceeding
0.0000000000	symptoms
0.0000000000	diseases
0.0000000000	500
0.0000000000	diagnosis
0.0000000000	compactness
0.0000000000	detect
0.0000000000	wish
0.0000000000	hyperparameter
0.0000000000	80
0.0000000000	45
0.0000000000	cutting
0.0000000000	masks
0.0000000000	adjust
0.0000000000	predictors
0.0000000000	concurrently
0.0000000000	shift
0.0000000000	mask
0.0000000000	correcting
0.0000000000	affecting
0.0000000000	preserves
0.0000000000	hurdle
0.0000000000	initiation
0.0000000000	mimicking
0.0000000000	loses
0.0000000000	parametrize
0.0000000000	occurs
0.0000000000	platform
0.0000000000	gp
0.0000000000	richer
0.0000000000	digit
0.0000000000	snn
0.0000000000	forgetting
0.0000000000	catastrophic
0.0000000000	proposal
0.0000000000	validates
0.0000000000	spiking
0.0000000000	digits
0.0000000000	complete
0.0000000000	satisfies
0.0000000000	sparseness
0.0000000000	enforce
0.0000000000	penalties
0.0000000000	merged
0.0000000000	computations
0.0000000000	implicitly
0.0000000000	locations
0.0000000000	updated
0.0000000000	tensors
0.0000000000	runtime
0.0000000000	increases
0.0000000000	smooth
0.0000000000	nonconvex
0.0000000000	cheaper
0.0000000000	wider
0.0000000000	nonlinearly
0.0000000000	multidimensional
0.0000000000	rotations
0.0000000000	translations
0.0000000000	sharp
0.0000000000	initializing
0.0000000000	instability
0.0000000000	variations
0.0000000000	leveraging
0.0000000000	expansion
0.0000000000	competitively
0.0000000000	invariances
0.0000000000	agreed
0.0000000000	regarding
0.0000000000	tight
0.0000000000	filters
0.0000000000	toward
0.0000000000	opens
0.0000000000	handling
0.0000000000	maze
0.0000000000	hierarchy
0.0000000000	elaborate
0.0000000000	costs
0.0000000000	textures
0.0000000000	music
0.0000000000	flexibly
0.0000000000	navigating
0.0000000000	iterative
0.0000000000	chaining
0.0000000000	imagine
0.0000000000	iteratively
0.0000000000	aggregated
0.0000000000	imagined
0.0000000000	plans
0.0000000000	imagination
0.0000000000	ladder
0.0000000000	prescribe
0.0000000000	navigation
0.0000000000	guarantees
0.0000000000	optimality
0.0000000000	holds
0.0000000000	wisdom
0.0000000000	mdps
0.0000000000	finite
0.0000000000	episodes
0.0000000000	retains
0.0000000000	termination
0.0000000000	receive
0.0000000000	receives
0.0000000000	acceptance
0.0000000000	none
0.0000000000	degrees
0.0000000000	endowing
0.0000000000	attains
0.0000000000	benchmarked
0.0000000000	heavily
0.0000000000	adaptable
0.0000000000	interleaving
0.0000000000	pieces
0.0000000000	pinpoint
0.0000000000	aggregate
0.0000000000	former
0.0000000000	constrain
0.0000000000	extensively
0.0000000000	asked
0.0000000000	essence
0.0000000000	generalization
0.0000000000	hopes
0.0000000000	adapt
0.0000000000	struggle
0.0000000000	recommends
0.0000000000	regimes
0.0000000000	excel
0.0000000000	1000
0.0000000000	000
0.0000000000	meta
0.0000000000	tensorflow
0.0000000000	api
0.0000000000	exchange
0.0000000000	gym
0.0000000000	openai
0.0000000000	trading
0.0000000000	stock
0.0000000000	categorical
0.0000000000	encouraging
0.0000000000	choices
0.0000000000	stream
0.0000000000	define
0.0000000000	parametric
0.0000000000	unbounded
0.0000000000	preparation
0.0000000000	enhanced
0.0000000000	tackling
0.0000000000	faced
0.0000000000	perhaps
0.0000000000	transitions
0.0000000000	decades
0.0000000000	last
0.0000000000	partially
0.0000000000	markovian
0.0000000000	transformed
0.0000000000	considering
0.0000000000	variance
0.0000000000	tightness
0.0000000000	relate
0.0000000000	tighter
0.0000000000	arguments
0.0000000000	marginal
0.0000000000	estimator
0.0000000000	densities
0.0000000000	elbo
0.0000000000	paid
0.0000000000	kernel
0.0000000000	discard
0.0000000000	fidelity
0.0000000000	retaining
0.0000000000	likelihoods
0.0000000000	held
0.0000000000	doubling
0.0000000000	absence
0.0000000000	opposite
0.0000000000	memorizing
0.0000000000	inferior
0.0000000000	attain
0.0000000000	adversarially
0.0000000000	differently
0.0000000000	middle
0.0000000000	11
0.0000000000	characterizing
0.0000000000	completely
0.0000000000	feeding
0.0000000000	millions
0.0000000000	learnt
0.0000000000	purposes
0.0000000000	reusing
0.0000000000	unprecedented
0.0000000000	situation
0.0000000000	descriptive
0.0000000000	causation
0.0000000000	multivariate
0.0000000000	detecting
0.0000000000	causality
0.0000000000	counterpart
0.0000000000	regularized
0.0000000000	theoretically
0.0000000000	steer
0.0000000000	pursuit
0.0000000000	causally
0.0000000000	deeply
0.0000000000	construction
0.0000000000	considerable
0.0000000000	providing
0.0000000000	vanilla
0.0000000000	equal
0.0000000000	divides
0.0000000000	primarily
0.0000000000	crisp
0.0000000000	deriving
0.0000000000	mode
0.0000000000	bound
0.0000000000	iterated
0.0000000000	bits
0.0000000000	dominating
0.0000000000	exhibiting
0.0000000000	depths
0.0000000000	careful
0.0000000000	continually
0.0000000000	expressiveness
0.0000000000	bottlenecks
0.0000000000	slowly
0.0000000000	bridge
0.0000000000	engine
0.0000000000	doom
0.0000000000	benefiting
0.0000000000	grid
0.0000000000	pixel
0.0000000000	animals
0.0000000000	trials
0.0000000000	huge
0.0000000000	subgoals
0.0000000000	appealing
0.0000000000	scalar
0.0000000000	occupancy
0.0000000000	map
0.0000000000	predictor
0.0000000000	sr
0.0000000000	surpass
0.0000000000	regulatory
0.0000000000	gene
0.0000000000	expression
0.0000000000	rna
0.0000000000	succeed
0.0000000000	motifs
0.0000000000	identifies
0.0000000000	prescribed
0.0000000000	genomics
0.0000000000	suit
0.0000000000	cannot
0.0000000000	diminishing
0.0000000000	differs
0.0000000000	normalization
0.0000000000	instructions
0.0000000000	genome
0.0000000000	facilitates
0.0000000000	clipping
0.0000000000	predetermined
0.0000000000	clipped
0.0000000000	approximations
0.0000000000	genomic
0.0000000000	discovering
0.0000000000	targets
0.0000000000	normalize
0.0000000000	adaptively
0.0000000000	matrices
0.0000000000	constraints
0.0000000000	initializations
0.0000000000	unitary
0.0000000000	specify
0.0000000000	explain
0.0000000000	themselves
0.0000000000	illuminate
0.0000000000	constructions
0.0000000000	store
0.0000000000	1997
0.0000000000	outlined
0.0000000000	abilities
0.0000000000	intractable
0.0000000000	tools
0.0000000000	allow
0.0000000000	embed
0.0000000000	leverages
0.0000000000	motivates
0.0000000000	orthogonal
0.0000000000	impossible
0.0000000000	involving
0.0000000000	plants
0.0000000000	industrial
0.0000000000	outcomes
0.0000000000	plan
0.0000000000	subgraphs
0.0000000000	program
0.0000000000	trigram
0.0000000000	babi
0.0000000000	favorable
0.0000000000	transcriptions
0.0000000000	incomplete
0.0000000000	broadly
0.0000000000	tendency
0.0000000000	shortcomings
0.0000000000	recordings
0.0000000000	transcribes
0.0000000000	modify
0.0000000000	analyse
0.0000000000	starting
0.0000000000	bases
0.0000000000	social
0.0000000000	chemistry
0.0000000000	matter
0.0000000000	guarantee
0.0000000000	depression
0.0000000000	potentiation
0.0000000000	updating
0.0000000000	stdp
0.0000000000	spikes
0.0000000000	weakened
0.0000000000	strengthened
0.0000000000	postulates
0.0000000000	infinitely
0.0000000000	dimensional
0.0000000000	dybm
0.0000000000	refer
0.0000000000	plasticity
0.0000000000	timing
0.0000000000	spike
0.0000000000	boltzmann
0.0000000000	arm
0.0000000000	probe
0.0000000000	nonparametric
0.0000000000	bandit
0.0000000000	comprises
0.0000000000	dac
0.0000000000	secondly
0.0000000000	difference
0.0000000000	innovations
0.0000000000	policies
0.0000000000	compatible
0.0000000000	insensitive
0.0000000000	formulations
0.0000000000	devised
0.0000000000	criterion
0.0000000000	irrelevant
0.0000000000	bias
0.0000000000	unwanted
0.0000000000	aim
0.0000000000	readily
0.0000000000	expose
0.0000000000	unbiased
0.0000000000	temporarily
0.0000000000	behaved
0.0000000000	expressive
0.0000000000	tends
0.0000000000	omitted
0.0000000000	affects
0.0000000000	modification
0.0000000000	regression
0.0000000000	characterization
0.0000000000	convexity
0.0000000000	norm
0.0000000000	immune
0.0000000000	corner
0.0000000000	hence
0.0000000000	degradation
0.0000000000	minimized
0.0000000000	corrupted
0.0000000000	engines
0.0000000000	point
0.0000000000	floating
0.0000000000	device
0.0000000000	resolution
0.0000000000	exhibit
0.0000000000	emerging
0.0000000000	stochastically
0.0000000000	memristive
0.0000000000	attended
0.0000000000	ablation
0.0000000000	oh
0.0000000000	pushing
0.0000000000	brains
0.0000000000	principles
0.0000000000	actual
0.0000000000	optimised
0.0000000000	ignored
0.0000000000	biased
0.0000000000	usually
0.0000000000	variant
0.0000000000	critic
0.0000000000	actor
0.0000000000	truncated
0.0000000000	backup
0.0000000000	aggregating
0.0000000000	implausible
0.0000000000	constructs
0.0000000000	every
0.0000000000	backwards
0.0000000000	propagate
0.0000000000	replacement
0.0000000000	coming
0.0000000000	bptt
0.0000000000	drawback
0.0000000000	utility
0.0000000000	deficiencies
0.0000000000	transition
0.0000000000	trees
0.0000000000	ahead
0.0000000000	successes
0.0000000000	assignment
0.0000000000	credit
0.0000000000	backtracking
0.0000000000	tree
0.0000000000	interestingly
0.0000000000	discounting
0.0000000000	robotic
0.0000000000	horizons
0.0000000000	preliminary
0.0000000000	tolerant
0.0000000000	rewards
0.0000000000	frequency
0.0000000000	invariant
0.0000000000	hour
0.0000000000	minutes
0.0000000000	walking
0.0000000000	humanoid
0.0000000000	3d
0.0000000000	workers
0.0000000000	thousand
0.0000000000	solves
0.0000000000	communicate
0.0000000000	connecting
0.0000000000	parameterized
0.0000000000	cpus
0.0000000000	viable
0.0000000000	mujoco
0.0000000000	mdp
0.0000000000	box
0.0000000000	es
0.0000000000	observability
0.0000000000	qmdp
0.0000000000	manipulations
0.0000000000	ma
0.0000000000	confirm
0.0000000000	invertible
0.0000000000	refinement
0.0000000000	undergo
0.0000000000	population
0.0000000000	volume
0.0000000000	individuals
0.0000000000	valued
0.0000000000	exploitation
0.0000000000	optimum
0.0000000000	responsible
0.0000000000	ps
0.0000000000	swarm
0.0000000000	particle
0.0000000000	boosting
0.0000000000	sidestep
0.0000000000	designing
0.0000000000	surround
0.0000000000	normal
0.0000000000	svms
0.0000000000	memetic
0.0000000000	biologically
0.0000000000	drawn
0.0000000000	pso
0.0000000000	influence
0.0000000000	exploratory
0.0000000000	lists
0.0000000000	categorized
0.0000000000	resonance
0.0000000000	magnetic
0.0000000000	functional
0.0000000000	acquired
0.0000000000	neuroimaging
0.0000000000	ive
0.0000000000	na
0.0000000000	mads
0.0000000000	meshes
0.0000000000	synthesizing
0.0000000000	squares
0.0000000000	least
0.0000000000	intensity
0.0000000000	estimated
0.0000000000	arc
0.0000000000	neighbors
0.0000000000	p
0.0000000000	surrounded
0.0000000000	node
0.0000000000	center
0.0000000000	hardware
0.0000000000	accelerated
0.0000000000	around
0.0000000000	kitti
0.0000000000	star
0.0000000000	instant
0.0000000000	125
0.0000000000	sim
0.0000000000	ancestor
0.0000000000	synapses
0.0000000000	synthesizes
0.0000000000	decode
0.0000000000	categorization
0.0000000000	voxel
0.0000000000	56
0.0000000000	resnet
0.0000000000	alexnet
0.0000000000	lenet
0.0000000000	chips
0.0000000000	accelerator
0.0000000000	tailored
0.0000000000	relationships
0.0000000000	utilizing
0.0000000000	formation
0.0000000000	guides
0.0000000000	offspring
0.0000000000	advance
0.0000000000	simulate
0.0000000000	genetic
0.0000000000	factor
0.0000000000	synthesize
0.0000000000	mimics
0.0000000000	mesh
0.0000000000	down
0.0000000000	89
0.0000000000	150
0.0000000000	correct
0.0000000000	transcription
0.0000000000	cluster
0.0000000000	synaptic
0.0000000000	look
0.0000000000	evolution
0.0000000000	formulas
0.0000000000	math
0.0000000000	handwritten
0.0000000000	rendered
0.0000000000	roles
0.0000000000	latex
0.0000000000	convert
0.0000000000	background
0.0000000000	perceptron
0.0000000000	multilayer
0.0000000000	arrangements
0.0000000000	markup
0.0000000000	forecast
0.0000000000	microsoft
0.0000000000	monolingual
0.0000000000	visually
0.0000000000	create
0.0000000000	bringing
0.0000000000	impressively
0.0000000000	blocks
0.0000000000	clip
0.0000000000	multilingual
0.0000000000	noises
0.0000000000	mitigate
0.0000000000	realm
0.0000000000	examples
0.0000000000	correction
0.0000000000	trusted
0.0000000000	severe
0.0000000000	clean
0.0000000000	wrong
0.0000000000	predicts
0.0000000000	bad
0.0000000000	corruptions
0.0000000000	adversaries
0.0000000000	poisoning
0.0000000000	corruption
0.0000000000	multimedia
0.0000000000	expert
0.0000000000	speeds
0.0000000000	advent
0.0000000000	enhances
0.0000000000	harm
0.0000000000	avoid
0.0000000000	annotated
0.0000000000	confidence
0.0000000000	sound
0.0000000000	modality
0.0000000000	following
0.0000000000	choosing
0.0000000000	inform
0.0000000000	somehow
0.0000000000	selector
0.0000000000	varying
0.0000000000	unaware
0.0000000000	stages
0.0000000000	max
0.0000000000	extra
0.0000000000	dtw
0.0000000000	warping
0.0000000000	pretrain
0.0000000000	em
0.0000000000	click
0.0000000000	modalities
0.0000000000	heuristic
0.0000000000	cope
0.0000000000	audio
0.0000000000	neuroscience
0.0000000000	shapes
0.0000000000	interested
0.0000000000	directions
0.0000000000	abstract
0.0000000000	infants
0.0000000000	happens
0.0000000000	mappings
0.0000000000	compound
0.0000000000	associations
0.0000000000	etc
0.0000000000	colors
0.0000000000	scope
0.0000000000	reusable
0.0000000000	instantiate
0.0000000000	substructures
0.0000000000	decomposes
0.0000000000	modules
0.0000000000	collections
0.0000000000	representational
0.0000000000	seeks
0.0000000000	cat
0.0000000000	color
0.0000000000	substructure
0.0000000000	shares
0.0000000000	dog
0.0000000000	fundamentally
0.0000000000	association
0.0000000000	symbol
0.0000000000	clues
0.0000000000	locates
0.0000000000	illustrates
0.0000000000	visualization
0.0000000000	san
0.0000000000	compose
0.0000000000	encode
0.0000000000	inter
0.0000000000	qa
0.0000000000	simulation
0.0000000000	booking
0.0000000000	movie
0.0000000000	experiences
0.0000000000	supplement
0.0000000000	solutions
0.0000000000	planner
0.0000000000	erroneous
0.0000000000	dyna
0.0000000000	unreliable
0.0000000000	simulator
0.0000000000	srn
0.0000000000	analytical
0.0000000000	divergences
0.0000000000	alpha
0.0000000000	bootstrapped
0.0000000000	backprop
0.0000000000	examines
0.0000000000	expense
0.0000000000	experience
0.0000000000	uncertainties
0.0000000000	sarsa
0.0000000000	choice
0.0000000000	greedy
0.0000000000	epsilon
0.0000000000	attractive
0.0000000000	manager
0.0000000000	management
0.0000000000	optimisation
0.0000000000	estimates
0.0000000000	uncertainty
0.0000000000	home
0.0000000000	channel
0.0000000000	weak
0.0000000000	avoiding
0.0000000000	approximated
0.0000000000	itself
0.0000000000	suitability
0.0000000000	decomposition
0.0000000000	rank
0.0000000000	quantization
0.0000000000	pruning
0.0000000000	paths
0.0000000000	ptb
0.0000000000	inappropriate
0.0000000000	server
0.0000000000	lattices
0.0000000000	expanding
0.0000000000	characterized
0.0000000000	interact
0.0000000000	optimize
0.0000000000	preferable
0.0000000000	hypothesized
0.0000000000	reference
0.0000000000	optimizes
0.0000000000	ce
0.0000000000	solely
0.0000000000	semiring
0.0000000000	formulation
0.0000000000	elegant
0.0000000000	facto
0.0000000000	risk
0.0000000000	bayes
0.0000000000	minimum
0.0000000000	were
0.0000000000	adaptations
0.0000000000	revealed
0.0000000000	introspection
0.0000000000	lowering
0.0000000000	grade
0.0000000000	consumer
0.0000000000	adapting
0.0000000000	throughput
0.0000000000	constrained
0.0000000000	refined
0.0000000000	guiding
0.0000000000	interpreted
0.0000000000	budget
0.0000000000	intentions
0.0000000000	variability
0.0000000000	summary
0.0000000000	fail
0.0000000000	diagnoses
0.0000000000	deterministic
0.0000000000	constructing
0.0000000000	care
0.0000000000	intensive
0.0000000000	crafting
0.0000000000	discussed
0.0000000000	communicating
0.0000000000	suited
0.0000000000	grounding
0.0000000000	ties
0.0000000000	intention
0.0000000000	ordering
0.0000000000	optimized
0.0000000000	mips
0.0000000000	product
0.0000000000	inner
0.0000000000	preserving
0.0000000000	easier
0.0000000000	unifies
0.0000000000	flat
0.0000000000	avoids
0.0000000000	2005
0.0000000000	organized
0.0000000000	estimating
0.0000000000	inherits
0.0000000000	memories
0.0000000000	purpose
0.0000000000	extremely
0.0000000000	computationally
0.0000000000	addressed
0.0000000000	leading
0.0000000000	fed
0.0000000000	altogether
0.0000000000	informed
0.0000000000	traits
0.0000000000	behave
0.0000000000	marginalizing
0.0000000000	certainly
0.0000000000	communities
0.0000000000	regarded
0.0000000000	alternatives
0.0000000000	includes
0.0000000000	therefore
0.0000000000	marginalized
0.0000000000	discriminatively
0.0000000000	wmt
0.0000000000	german
0.0000000000	possibly
0.0000000000	lookup
0.0000000000	languages
0.0000000000	morphologically
0.0000000000	dealing
0.0000000000	faces
0.0000000000	reached
0.0000000000	mt
0.0000000000	billions
0.0000000000	days
0.0000000000	carefully
0.0000000000	cpu
0.0000000000	gpus
0.0000000000	lowest
0.0000000000	scalability
0.0000000000	released
0.0000000000	beams
0.0000000000	32
0.0000000000	rescoring
0.0000000000	nce
0.0000000000	estimation
0.0000000000	contrastive
0.0000000000	voice
0.0000000000	google
0.0000000000	convergence
0.0000000000	independence
0.0000000000	stability
0.0000000000	rnnlms
0.0000000000	spectra
0.0000000000	accepts
0.0000000000	massive
0.0000000000	approximation
0.0000000000	listener
0.0000000000	las
0.0000000000	vocabularies
0.0000000000	speeding
0.0000000000	listen
0.0000000000	outputting
0.0000000000	concentrating
0.0000000000	reduced
0.0000000000	stacking
0.0000000000	repeated
0.0000000000	ctc
0.0000000000	connectionist
0.0000000000	initialized
0.0000000000	awareness
0.0000000000	failure
0.0000000000	roughly
0.0000000000	reaches
0.0000000000	gen
0.0000000000	caption
0.0000000000	synthesis
0.0000000000	correlated
0.0000000000	mentioned
0.0000000000	above
0.0000000000	13
0.0000000000	latter
0.0000000000	divergence
0.0000000000	leibler
0.0000000000	kullback
0.0000000000	disadvantages
0.0000000000	reconstructing
0.0000000000	projected
0.0000000000	ae
0.0000000000	cca
0.0000000000	traditionally
0.0000000000	paradigms
0.0000000000	deploy
0.0000000000	receiving
0.0000000000	subspace
0.0000000000	embedded
0.0000000000	views
0.0000000000	counterparts
0.0000000000	wherein
0.0000000000	crl
0.0000000000	correlational
0.0000000000	agree
0.0000000000	alignments
0.0000000000	concatenated
0.0000000000	clauses
0.0000000000	translated
0.0000000000	explicitly
0.0000000000	segmenting
0.0000000000	translating
0.0000000000	drop
0.0000000000	soft
0.0000000000	suffer
0.0000000000	cho
0.0000000000	authors
0.0000000000	bottleneck
0.0000000000	conjecture
0.0000000000	decoders
0.0000000000	belong
0.0000000000	curse
0.0000000000	philosophy
0.0000000000	interpretations
0.0000000000	scalable
0.0000000000	decreased
0.0000000000	periods
0.0000000000	0.05
0.0000000000	distances
0.0000000000	contrasted
0.0000000000	wordnet
0.0000000000	neighbourhoods
0.0000000000	respective
0.0000000000	collection
0.0000000000	translate
0.0000000000	align
0.0000000000	period
0.0000000000	drifts
0.0000000000	monitor
0.0000000000	organizing
0.0000000000	indexing
0.0000000000	changes
0.0000000000	express
0.0000000000	metaphor
0.0000000000	falling
0.0000000000	entire
0.0000000000	energy
0.0000000000	advocates
0.0000000000	vs
0.0000000000	concept
0.0000000000	integration
0.0000000000	sized
0.0000000000	evolving
0.0000000000	quickly
0.0000000000	converge
0.0000000000	drift
0.0000000000	configurations
0.0000000000	monitoring
0.0000000000	numbers
0.0000000000	phone
0.0000000000	weaker
0.0000000000	assumed
0.0000000000	handwriting
0.0000000000	precisely
0.0000000000	cyclic
0.0000000000	feedforward
0.0000000000	teacher
0.0000000000	gained
0.0000000000	fasttext
0.0000000000	shallow
0.0000000000	dark
0.0000000000	inception
0.0000000000	depth
0.0000000000	width
0.0000000000	syntactically
0.0000000000	rely
0.0000000000	computed
0.0000000000	detailed
0.0000000000	probability
0.0000000000	maximize
0.0000000000	raises
0.0000000000	decodes
0.0000000000	requirement
0.0000000000	modeled
0.0000000000	phrase
0.0000000000	evaluations
0.0000000000	extrinsic
0.0000000000	billion
0.0000000000	purely
0.0000000000	absorbing
0.0000000000	coherence
0.0000000000	paragraph
0.0000000000	signals
0.0000000000	exploits
0.0000000000	gating
0.0000000000	thousands
0.0000000000	moe
0.0000000000	minor
0.0000000000	objectives
0.0000000000	promise
0.0000000000	realize
0.0000000000	longer
0.0000000000	horizon
0.0000000000	outside
0.0000000000	algorithmic
0.0000000000	growth
0.0000000000	prevents
0.0000000000	proportional
0.0000000000	superior
0.0000000000	dramatically
0.0000000000	theory
0.0000000000	irnn
0.0000000000	transducer
0.0000000000	dropout
0.0000000000	regularizer
0.0000000000	penalty
0.0000000000	norms
0.0000000000	penalizing
0.0000000000	stabilize
0.0000000000	mixture
0.0000000000	sparsely
0.0000000000	stabilizing
0.0000000000	regularizing
0.0000000000	wsj
0.0000000000	journal
0.0000000000	street
0.0000000000	wall
0.0000000000	posterior
0.0000000000	signal
0.0000000000	practices
0.0000000000	establish
0.0000000000	processor
0.0000000000	acts
0.0000000000	produces
0.0000000000	followed
0.0000000000	convolution
0.0000000000	ten
0.0000000000	blstm
0.0000000000	tc
0.0000000000	thoroughly
0.0000000000	asr
0.0000000000	combining
0.0000000000	locally
0.0000000000	telephone
0.0000000000	300
0.0000000000	approximately
0.0000000000	contains
0.0000000000	influencing
0.0000000000	quantify
0.0000000000	recognizer
0.0000000000	final
0.0000000000	sophisticated
0.0000000000	concatenation
0.0000000000	investigation
0.0000000000	simpler
0.0000000000	unexpected
0.0000000000	mainly
0.0000000000	central
0.0000000000	now
0.0000000000	augmenting
0.0000000000	conditions
0.0000000000	noisy
0.0000000000	resort
0.0000000000	30
0.0000000000	prohibitively
0.0000000000	epoch
0.0000000000	per
0.0000000000	revised
0.0000000000	equations
0.0000000000	update
0.0000000000	relu
0.0000000000	tanh
0.0000000000	replace
0.0000000000	gru
0.0000000000	gate
0.0000000000	reset
0.0000000000	remove
0.0000000000	fold
0.0000000000	potentially
0.0000000000	just
0.0000000000	led
0.0000000000	simplify
0.0000000000	impair
0.0000000000	nevertheless
0.0000000000	gradients
0.0000000000	robustness
0.0000000000	modern
0.0000000000	advantage
0.0000000000	taking
0.0000000000	largely
0.0000000000	needing
0.0000000000	revising
0.0000000000	q
0.0000000000	modest
0.0000000000	passage
0.0000000000	integrates
0.0000000000	handle
0.0000000000	rl
0.0000000000	sl
0.0000000000	already
0.0000000000	big
0.0000000000	piece
0.0000000000	composing
0.0000000000	symbolic
0.0000000000	covers
0.0000000000	summarize
0.0000000000	builds
0.0000000000	net
0.0000000000	parser
0.0000000000	reflects
0.0000000000	ontology
0.0000000000	parses
0.0000000000	ranker
0.0000000000	comprehensive
0.0000000000	experimentally
0.0000000000	applicability
0.0000000000	assumption
0.0000000000	verify
0.0000000000	simplified
0.0000000000	github.com
0.0000000000	https
0.0000000000	compact
0.0000000000	speedup
0.0000000000	lasso
0.0000000000	uncorrelated
0.0000000000	smaller
0.0000000000	distance
0.0000000000	ell
0.0000000000	consistency
0.0000000000	dimension
0.0000000000	always
0.0000000000	generalised
0.0000000000	removing
0.0000000000	operator
0.0000000000	remains
0.0000000000	invalid
0.0000000000	offset
0.0000000000	dimensions
0.0000000000	inconsistent
0.0000000000	independently
0.0000000000	surprisingly
0.0000000000	analogical
0.0000000000	sizes
0.0000000000	structurally
0.0000000000	requests
0.0000000000	service
0.0000000000	quick
0.0000000000	clusters
0.0000000000	business
0.0000000000	possessing
0.0000000000	devices
0.0000000000	adoption
0.0000000000	analogy
0.0000000000	operators
0.0000000000	bilinear
0.0000000000	why
0.0000000000	seeking
0.0000000000	autonomous
0.0000000000	serves
0.0000000000	architectural
0.0000000000	novelty
0.0000000000	believe
0.0000000000	squad
0.0000000000	weaknesses
0.0000000000	highlighting
0.0000000000	judgements
0.0000000000	weakly
0.0000000000	adopted
0.0000000000	successor
0.0000000000	give
0.0000000000	successive
0.0000000000	decompose
0.0000000000	whereby
0.0000000000	preprocessing
0.0000000000	minimizing
0.0000000000	retain
0.0000000000	mid
0.0000000000	coherent
0.0000000000	little
0.0000000000	had
0.0000000000	everything
0.0000000000	stories
0.0000000000	told
0.0000000000	events
0.0000000000	nets
0.0000000000	illustrate
0.0000000000	partial
0.0000000000	argument
0.0000000000	implicit
0.0000000000	gain
0.0000000000	profiling
0.0000000000	author
0.0000000000	encoded
0.0000000000	comes
0.0000000000	side
0.0000000000	attending
0.0000000000	row
0.0000000000	immediate
0.0000000000	matrix
0.0000000000	attentive
0.0000000000	efficiency
0.0000000000	spans
0.0000000000	reasonable
0.0000000000	ease
0.0000000000	variety
0.0000000000	solution
0.0000000000	engineer
0.0000000000	viability
0.0000000000	reverse
0.0000000000	underline
0.0000000000	disentangle
0.0000000000	basis
0.0000000000	change
0.0000000000	faster
0.0000000000	16
0.0000000000	characterize
0.0000000000	exactly
0.0000000000	nonlinearities
0.0000000000	lacking
0.0000000000	channels
0.0000000000	transformations
0.0000000000	applies
0.0000000000	composed
0.0000000000	minimalist
0.0000000000	timesteps
0.0000000000	alternates
0.0000000000	parallelism
0.0000000000	limits
0.0000000000	computation
0.0000000000	timestep
0.0000000000	affine
0.0000000000	switched
0.0000000000	facebook
0.0000000000	provided
0.0000000000	attempts
0.0000000000	sum
0.0000000000	60
0.0000000000	complementary
0.0000000000	contribute
0.0000000000	proposing
0.0000000000	direction
0.0000000000	motivating
0.0000000000	decrease
0.0000000000	possibilities
0.0000000000	morphological
0.0000000000	french
0.0000000000	unlimited
0.0000000000	dynamically
0.0000000000	practically
0.0000000000	modular
0.0000000000	specified
0.0000000000	priori
0.0000000000	inclusion
0.0000000000	permits
0.0000000000	symbols
0.0000000000	combat
0.0000000000	learner
0.0000000000	abundance
0.0000000000	advantages
0.0000000000	embracing
0.0000000000	conceptually
0.0000000000	softmax
0.0000000000	replaces
0.0000000000	exploited
0.0000000000	benefits
0.0000000000	ll
0.0000000000	encoding
0.0000000000	ams
0.0000000000	operates
0.0000000000	extended
0.0000000000	augments
0.0000000000	am
0.0000000000	derive
0.0000000000	maintain
0.0000000000	carrying
0.0000000000	steps
0.0000000000	span
0.0000000000	kind
0.0000000000	effort
0.0000000000	associative
0.0000000000	subsequences
0.0000000000	dependencies
0.0000000000	possesses
0.0000000000	comparable
0.0000000000	presented
0.0000000000	established
0.0000000000	evaluators
0.0000000000	freebase
0.0000000000	structures
0.0000000000	fairly
0.0000000000	enormous
0.0000000000	executing
0.0000000000	enabled
0.0000000000	supervision
0.0000000000	decade
0.0000000000	guidance
0.0000000000	stronger
0.0000000000	fashion
0.0000000000	parsing
0.0000000000	factoid
0.0000000000	reusability
0.0000000000	summarization
0.0000000000	efficacy
0.0000000000	places
0.0000000000	proper
0.0000000000	put
0.0000000000	controlling
0.0000000000	saved
0.0000000000	levels
0.0000000000	annotations
0.0000000000	consisting
0.0000000000	intermediate
0.0000000000	operations
0.0000000000	regular
0.0000000000	nicely
0.0000000000	queries
0.0000000000	harder
0.0000000000	execution
0.0000000000	realizes
0.0000000000	releasing
0.0000000000	comparisons
0.0000000000	methodology
0.0000000000	grounded
0.0000000000	statistically
0.0000000000	distributional
0.0000000000	randomized
0.0000000000	machinery
0.0000000000	parsers
0.0000000000	regard
0.0000000000	efforts
0.0000000000	conversation
0.0000000000	ir
0.0000000000	names
0.0000000000	repeat
0.0000000000	tend
0.0000000000	communication
0.0000000000	perspective
0.0000000000	executes
0.0000000000	observable
0.0000000000	finds
0.0000000000	replicated
0.0000000000	selectively
0.0000000000	basically
0.0000000000	answers
0.0000000000	kb
0.0000000000	paraphrasing
0.0000000000	ranking
0.0000000000	utterance
0.0000000000	nl
0.0000000000	referred
0.0000000000	seq2seq
0.0000000000	execute
0.0000000000	copying
0.0000000000	respectively
0.0000000000	scoring
0.0000000000	outperforming
0.0000000000	dev
0.0000000000	sdm
0.0000000000	wer
0.0000000000	obtains
0.0000000000	generic
0.0000000000	tables
0.0000000000	query
0.0000000000	indicate
0.0000000000	ami
0.0000000000	criteria
0.0000000000	demonstrating
0.0000000000	get
0.0000000000	robocup
0.0000000000	keeping
0.0000000000	history
0.0000000000	generalizability
0.0000000000	entailments
0.0000000000	lastly
0.0000000000	controlled
0.0000000000	encourages
0.0000000000	deeper
0.0000000000	elucidate
0.0000000000	visualizations
0.0000000000	series
0.0000000000	enable
0.0000000000	beam
0.0000000000	reads
0.0000000000	neighbor
0.0000000000	nearest
0.0000000000	k
0.0000000000	adjacent
0.0000000000	resources
0.0000000000	cells
0.0000000000	linguistic
0.0000000000	specialized
0.0000000000	gated
0.0000000000	differentiable
0.0000000000	59
0.0000000000	date
0.0000000000	reported
0.0000000000	attempt
0.0000000000	lexical
0.0000000000	slightly
0.0000000000	employs
0.0000000000	pipelines
0.0000000000	engineered
0.0000000000	employing
0.0000000000	recognizing
0.0000000000	event
0.0000000000	encodes
0.0000000000	distant
0.0000000000	realization
0.0000000000	highway
0.0000000000	98
0.0000000000	aligner
0.0000000000	6
0.0000000000	independent
0.0000000000	10k
0.0000000000	example
0.0000000000	8
0.0000000000	positional
0.0000000000	margins
0.0000000000	manner
0.0000000000	entailment
0.0000000000	effectively
0.0000000000	expressions
0.0000000000	accuracies
0.0000000000	accommodate
0.0000000000	thereby
0.0000000000	neighboring
0.0000000000	assuming
0.0000000000	contained
0.0000000000	logical
0.0000000000	scan
0.0000000000	limiting
0.0000000000	operation
0.0000000000	chooses
0.0000000000	forms
0.0000000000	scans
0.0000000000	supporting
0.0000000000	pretrained
0.0000000000	pair
0.0000000000	bootstrapping
0.0000000000	reasoner
0.0000000000	replaced
0.0000000000	hmm
0.0000000000	modelling
0.0000000000	acoustic
0.0000000000	separate
0.0000000000	hybrids
0.0000000000	lvcsr
0.0000000000	realistic
0.0000000000	possibility
0.0000000000	opening
0.0000000000	autonomously
0.0000000000	corpora
0.0000000000	selecting
0.0000000000	suitable
0.0000000000	describe
0.0000000000	services
0.0000000000	microblog
0.0000000000	property
0.0000000000	unlabeled
0.0000000000	amounts
0.0000000000	managers
0.0000000000	resource
0.0000000000	100
0.0000000000	vocabulary
0.0000000000	7
0.0000000000	total
0.0000000000	dialogues
0.0000000000	containing
0.0000000000	baselines
0.0000000000	consistent
0.0000000000	allowing
0.0000000000	turn
0.0000000000	contextual
0.0000000000	quantities
0.0000000000	insights
0.0000000000	visualizing
0.0000000000	report
0.0000000000	exists
0.0000000000	subsequence
0.0000000000	atis
0.0000000000	longest
0.0000000000	programming
0.0000000000	approximate
0.0000000000	capability
0.0000000000	memorization
0.0000000000	sensitive
0.0000000000	scenario
0.0000000000	exploding
0.0000000000	vanishing
0.0000000000	calculated
0.0000000000	away
0.0000000000	four
0.0000000000	recursively
0.0000000000	relates
0.0000000000	dependence
0.0000000000	memorize
0.0000000000	tractable
0.0000000000	mathematically
0.0000000000	remaining
0.0000000000	attributed
0.0000000000	constructed
0.0000000000	tensor
0.0000000000	modes
0.0000000000	firstly
0.0000000000	capacity
0.0000000000	associate
0.0000000000	namely
0.0000000000	constant
0.0000000000	tagger
0.0000000000	restriction
0.0000000000	increasingly
0.0000000000	gaussian
0.0000000000	uni
0.0000000000	composition
0.0000000000	priors
0.0000000000	simplistic
0.0000000000	assume
0.0000000000	factors
0.0000000000	modal
0.0000000000	view
0.0000000000	represent
0.0000000000	autoencoders
0.0000000000	determine
0.0000000000	aims
0.0000000000	preferences
0.0000000000	correlate
0.0000000000	rankings
0.0000000000	logs
0.0000000000	assessed
0.0000000000	deployed
0.0000000000	21
0.0000000000	density
0.0000000000	produced
0.0000000000	meaning
0.0000000000	songs
0.0000000000	employ
0.0000000000	variational
0.0000000000	variables
0.0000000000	piecewise
0.0000000000	times
0.0000000000	17
0.0000000000	randomly
0.0000000000	extracting
0.0000000000	candidate
0.0000000000	stacked
0.0000000000	sae
0.0000000000	belief
0.0000000000	dbn
0.0000000000	guided
0.0000000000	exploring
0.0000000000	attend
0.0000000000	perceptrons
0.0000000000	mlp
0.0000000000	flow
0.0000000000	cornerstone
0.0000000000	skills
0.0000000000	interesting
0.0000000000	creativity
0.0000000000	0.75
0.0000000000	writing
0.0000000000	f
0.0000000000	poor
0.0000000000	remained
0.0000000000	token
0.0000000000	external
0.0000000000	growing
0.0000000000	unstructured
0.0000000000	poses
0.0000000000	mining
0.0000000000	special
0.0000000000	lyrics
0.0000000000	rap
0.0000000000	sources
0.0000000000	name
0.0000000000	drug
0.0000000000	essential
0.0000000000	demands
0.0000000000	depending
0.0000000000	affected
0.0000000000	75
0.0000000000	20
0.0000000000	3.3
0.0000000000	1.3
0.0000000000	0
0.0000000000	reveals
0.0000000000	twelve
0.0000000000	commercial
0.0000000000	conjunction
0.0000000000	minimal
0.0000000000	compress
0.0000000000	tags
0.0000000000	relative
0.0000000000	compositional
0.0000000000	viewed
0.0000000000	contributes
0.0000000000	expectation
0.0000000000	weighted
0.0000000000	acquisition
0.0000000000	represented
0.0000000000	missing
0.0000000000	scores
0.0000000000	emphasize
0.0000000000	useless
0.0000000000	leave
0.0000000000	distributed
0.0000000000	recursive
0.0000000000	weight
0.0000000000	indicating
0.0000000000	activities
0.0000000000	accurately
0.0000000000	story
0.0000000000	read
0.0000000000	fmri
0.0000000000	activity
0.0000000000	internal
0.0000000000	aligning
0.0000000000	plausibility
0.0000000000	lacks
0.0000000000	brain
0.0000000000	looks
0.0000000000	gates
0.0000000000	cell
0.0000000000	success
0.0000000000	attracted
0.0000000000	bridging
0.0000000000	spoken
0.0000000000	beneficial
0.0000000000	tele
0.0000000000	synchronisation
0.0000000000	lip
0.0000000000	suggested
0.0000000000	confirmed
0.0000000000	eight
0.0000000000	asymmetric
0.0000000000	ms
0.0000000000	corresponds
0.0000000000	5
0.0000000000	shifted
0.0000000000	degrade
0.0000000000	timit
0.0000000000	tests
0.0000000000	frames
0.0000000000	future
0.0000000000	reducing
0.0000000000	hmms
0.0000000000	symmetric
0.0000000000	phonetic
0.0000000000	latency
0.0000000000	cd
0.0000000000	window
0.0000000000	optimising
0.0000000000	coco
0.0000000000	conduct
0.0000000000	correlation
0.0000000000	competent
0.0000000000	multiplication
0.0000000000	element
0.0000000000	bilstm
0.0000000000	overlapped
0.0000000000	selection
0.0000000000	losses
0.0000000000	location
0.0000000000	ask
0.0000000000	fusion
0.0000000000	adequate
0.0000000000	fusing
0.0000000000	encodings
0.0000000000	works
0.0000000000	2015
0.0000000000	witnessed
0.0000000000	saliency
0.0000000000	visualize
0.0000000000	whole
0.0000000000	considers
0.0000000000	patches
0.0000000000	aligns
0.0000000000	hop
0.0000000000	constitutes
0.0000000000	computing
0.0000000000	choose
0.0000000000	uses
0.0000000000	regions
0.0000000000	activations
0.0000000000	neuron
0.0000000000	stores
0.0000000000	stored
0.0000000000	selects
0.0000000000	explicit
0.0000000000	remedy
0.0000000000	failed
0.0000000000	photograph
0.0000000000	rarely
0.0000000000	unseen
0.0000000000	spell
0.0000000000	next
0.0000000000	initialization
0.0000000000	find
0.0000000000	callhome
0.0000000000	2000
0.0000000000	hub5
0.0000000000	closes
0.0000000000	recipe
0.0000000000	describes
0.0000000000	fisher
0.0000000000	switchboard
0.0000000000	gap
0.0000000000	showed
0.0000000000	comparably
0.0000000000	magnitude
0.0000000000	orders
0.0000000000	decoding
0.0000000000	externally
0.0000000000	lexicon
0.0000000000	pronunciation
0.0000000000	decoder
0.0000000000	any
0.0000000000	recognize
0.0000000000	because
0.0000000000	phones
0.0000000000	conventional
0.0000000000	received
0.0000000000	paradigm
0.0000000000	shows
0.0000000000	experimental
0.0000000000	english
0.0000000000	limitations
0.0000000000	acoustics
0.0000000000	direct
0.0000000000	obtaining
0.0000000000	qualitatively
0.0000000000	five
0.0000000000	directional
0.0000000000	bi
0.0000000000	grus
0.0000000000	arise
0.0000000000	multiplicative
0.0000000000	applicable
0.0000000000	extend
0.0000000000	decisions
0.0000000000	forward
0.0000000000	feed
0.0000000000	insightful
0.0000000000	deliver
0.0000000000	lrp
0.0000000000	propagation
0.0000000000	relevance
0.0000000000	wise
0.0000000000	called
0.0000000000	technique
0.0000000000	makes
0.0000000000	evaluating
0.0000000000	losing
0.0000000000	intelligently
0.0000000000	compressed
0.0000000000	evolutionary
0.0000000000	compression
0.0000000000	conditioned
0.0000000000	described
0.0000000000	qualitative
0.0000000000	grammars
0.0000000000	free
0.0000000000	quantitative
0.0000000000	poem
0.0000000000	chinese
0.0000000000	estimators
0.0000000000	relying
0.0000000000	addresses
0.0000000000	baseline
0.0000000000	alone
0.0000000000	gan
0.0000000000	far
0.0000000000	lag
0.0000000000	predictions
0.0000000000	commensurate
0.0000000000	explaining
0.0000000000	impressive
0.0000000000	community
0.0000000000	lot
0.0000000000	gathered
0.0000000000	clinicians
0.0000000000	indicates
0.0000000000	required
0.0000000000	normally
0.0000000000	experts
0.0000000000	annotation
0.0000000000	reduces
0.0000000000	phenotype
0.0000000000	upon
0.0000000000	salient
0.0000000000	presenting
0.0000000000	transferring
0.0000000000	additionally
0.0000000000	analyze
0.0000000000	alternative
0.0000000000	instance
0.0000000000	37
0.0000000000	pronounced
0.0000000000	scarcity
0.0000000000	having
0.0000000000	wants
0.0000000000	71
0.0000000000	sensitivity
0.0000000000	difficult
0.0000000000	83
0.0000000000	ppv
0.0000000000	76
0.0000000000	need
0.0000000000	ner
0.0000000000	database
0.0000000000	summaries
0.0000000000	discharge
0.0000000000	tested
0.0000000000	phenotypes
0.0000000000	clinical
0.0000000000	defined
0.0000000000	pre
0.0000000000	gram
0.0000000000	n
0.0000000000	entity
0.0000000000	named
0.0000000000	assess
0.0000000000	healthcare
0.0000000000	secondary
0.0000000000	part
0.0000000000	subtask
0.0000000000	ranked
0.0000000000	extract
0.0000000000	determining
0.0000000000	continue
0.0000000000	efficiently
0.0000000000	explored
0.0000000000	hyponyms
0.0000000000	synonyms
0.0000000000	concepts
0.0000000000	repository
0.0000000000	unique
0.0000000000	constitute
0.0000000000	articles
0.0000000000	scholarly
0.0000000000	million
0.0000000000	50
0.0000000000	relation
0.0000000000	2017
0.0000000000	semeval
0.0000000000	approximates
0.0000000000	classifier
0.0000000000	construct
0.0000000000	extracted
0.0000000000	quantitatively
0.0000000000	phrases
0.0000000000	representative
0.0000000000	distill
0.0000000000	consistently
0.0000000000	tracking
0.0000000000	lstms
0.0000000000	consider
0.0000000000	insight
0.0000000000	yielding
0.0000000000	boxes
0.0000000000	black
0.0000000000	treated
0.0000000000	generally
0.0000000000	unclear
0.0000000000	conclusions
0.0000000000	proven
0.0000000000	although
0.0000000000	phenotyping
0.0000000000	comparing
0.0000000000	published
0.0000000000	conclusion
0.0000000000	precision
0.0000000000	recall
0.0000000000	rule
0.0000000000	score
0.0000000000	f1
0.0000000000	yields
0.0000000000	article
0.0000000000	news
0.0000000000	twice
0.0000000000	did
0.0000000000	who
0.0000000000	assembled
0.0000000000	book
0.0000000000	children
0.0000000000	mimic
0.0000000000	benchmarks
0.0000000000	publicly
0.0000000000	largest
0.0000000000	obtained
0.0000000000	2014
0.0000000000	i2b2
0.0000000000	2.6
0.0000000000	1.2
0.0000000000	absolute
0.0000000000	encoders
0.0000000000	unlike
0.0000000000	rules
0.0000000000	hypotheses
0.0000000000	materials
0.0000000000	formed
0.0000000000	previously
0.0000000000	refines
0.0000000000	progressively
0.0000000000	consequently
0.0000000000	would
0.0000000000	loop
0.0000000000	automated
0.0000000000	reliable
0.0000000000	annotators
0.0000000000	frequent
0.0000000000	researchers
0.0000000000	ehr
0.0000000000	impractical
0.0000000000	hypothesis
0.0000000000	manual
0.0000000000	needs
0.0000000000	phi
0.0000000000	protected
0.0000000000	18
0.0000000000	accountability
0.0000000000	portability
0.0000000000	insurance
0.0000000000	states
0.0000000000	united
0.0000000000	patients
0.0000000000	confidentiality
0.0000000000	protect
0.0000000000	identified
0.0000000000	access
0.0000000000	investigators
0.0000000000	vast
0.0000000000	investigations
0.0000000000	critical
0.0000000000	contain
0.0000000000	ehrs
0.0000000000	records
0.0000000000	health
0.0000000000	electronic
0.0000000000	comprehension
0.0000000000	augmented
0.0000000000	isolation
0.0000000000	effectiveness
0.0000000000	combines
0.0000000000	fields
0.0000000000	greatly
0.0000000000	individually
0.0000000000	classify
0.0000000000	incorporate
0.0000000000	notes
0.0000000000	patient
0.0000000000	identification
0.0000000000	de
0.0000000000	abstracts
0.0000000000	mistakes
0.0000000000	gathering
0.0000000000	balance
0.0000000000	strategies
0.0000000000	completion
0.0000000000	incurred
0.0000000000	cost
0.0000000000	manipulating
0.0000000000	necessary
0.0000000000	found
0.0000000000	consequences
0.0000000000	observe
0.0000000000	manipulate
0.0000000000	link
0.0000000000	bigram
0.0000000000	simulated
0.0000000000	interactive
0.0000000000	factorization
0.0000000000	cohesion
0.0000000000	basic
0.0000000000	restaurant
0.0000000000	bp
0.0000000000	backpropagation
0.0000000000	young
0.0000000000	helping
0.0000000000	whilst
0.0000000000	intuition
0.0000000000	scientific
0.0000000000	rival
0.0000000000	converse
0.0000000000	match
0.0000000000	clear
0.0000000000	producing
0.0000000000	before
0.0000000000	hand
0.0000000000	transformation
0.0000000000	goes
0.0000000000	assumptions
0.0000000000	too
0.0000000000	superhuman
0.0000000000	us
0.0000000000	yielded
0.0000000000	oz
0.0000000000	wizard
0.0000000000	facts
0.0000000000	exponential
0.0000000000	usage
0.0000000000	scientist
0.0000000000	spirit
0.0000000000	interaction
0.0000000000	lightweight
0.0000000000	active
0.0000000000	driven
0.0000000000	dubbed
0.0000000000	interacting
0.0000000000	friction
0.0000000000	mass
0.0000000000	physical
0.0000000000	component
0.0000000000	range
0.0000000000	infer
0.0000000000	done
0.0000000000	labelled
0.0000000000	costly
0.0000000000	encountering
0.0000000000	acquiring
0.0000000000	neurons
0.0000000000	handcrafting
0.0000000000	customize
0.0000000000	typically
0.0000000000	flexibility
0.0000000000	components
0.0000000000	lack
0.0000000000	shortcoming
0.0000000000	bnn
0.0000000000	currently
0.0000000000	exploit
0.0000000000	accomplish
0.0000000000	alleviate
0.0000000000	teaching
0.0000000000	way
0.0000000000	prone
0.0000000000	unfortunately
0.0000000000	achieved
0.0000000000	nn
0.0000000000	recommendation
0.0000000000	ratings
0.0000000000	performing
0.0000000000	aware
0.0000000000	netflix
0.0000000000	sentiments
0.0000000000	unknown
0.0000000000	classifiers
0.0000000000	types
0.0000000000	synergy
0.0000000000	combined
0.0000000000	contribution
0.0000000000	understand
0.0000000000	learnable
0.0000000000	along
0.0000000000	paired
0.0000000000	add
0.0000000000	carry
0.0000000000	i.i.d
0.0000000000	analysed
0.0000000000	meteor
0.0000000000	project
0.0000000000	bleu
0.0000000000	cf
0.0000000000	filtering
0.0000000000	exceeds
0.0000000000	rnn
0.0000000000	develop
0.0000000000	go
0.0000000000	enough
0.0000000000	nor
0.0000000000	neither
0.0000000000	tuned
0.0000000000	surrogate
0.0000000000	action
0.0000000000	handcrafted
0.0000000000	sentiment
0.0000000000	dynamics
0.0000000000	commonly
0.0000000000	rating
0.0000000000	utilize
0.0000000000	3
0.0000000000	hybrid
0.0000000000	spatial
0.0000000000	descriptions
0.0000000000	successfully
0.0000000000	strongly
0.0000000000	dynamic
0.0000000000	requires
0.0000000000	sc
0.0000000000	working
0.0000000000	static
0.0000000000	type
0.0000000000	t
0.0000000000	sqrt
0.0000000000	description
0.0000000000	rnns
0.0000000000	originally
0.0000000000	recently
0.0000000000	become
0.0000000000	fill
0.0000000000	recommend
0.0000000000	autoencoder
0.0000000000	collaborative
0.0000000000	otherwise
0.0000000000	unchanged
0.0000000000	leaving
0.0000000000	pedestrians
0.0000000000	removes
0.0000000000	existence
0.0000000000	arbitrary
0.0000000000	predicted
0.0000000000	result
0.0000000000	patterns
0.0000000000	barely
0.0000000000	exploiting
0.0000000000	describing
0.0000000000	output
0.0000000000	keypoint
0.0000000000	rgb
0.0000000000	onto
0.0000000000	road
0.0000000000	buildings
0.0000000000	maps
0.0000000000	correctly
0.0000000000	register
0.0000000000	speed
0.0000000000	predicting
0.0000000000	schemes
0.0000000000	rid
0.0000000000	appropriately
0.0000000000	chained
0.0000000000	once
0.0000000000	easy
0.0000000000	notion
0.0000000000	significance
0.0000000000	note
0.0000000000	analyzing
0.0000000000	slow
0.0000000000	encountered
0.0000000000	imaging
0.0000000000	medical
0.0000000000	importance
0.0000000000	prime
0.0000000000	tackle
0.0000000000	surpasses
0.0000000000	built
0.0000000000	field
0.0000000000	sensing
0.0000000000	remote
0.0000000000	alignment
0.0000000000	multimodal
0.0000000000	scale
0.0000000000	registration
0.0000000000	rigid
0.0000000000	dependent
0.0000000000	classified
0.0000000000	properly
0.0000000000	compensate
0.0000000000	v
0.0000000000	overfitting
0.0000000000	cause
0.0000000000	necessarily
0.0000000000	opposed
0.0000000000	iv
0.0000000000	extent
0.0000000000	removed
0.0000000000	whereas
0.0000000000	eliminates
0.0000000000	totally
0.0000000000	iii
0.0000000000	scenarios
0.0000000000	analyzed
0.0000000000	dominant
0.0000000000	addressing
0.0000000000	ii
0.0000000000	detrimental
0.0000000000	effect
0.0000000000	i
0.0000000000	conclude
0.0000000000	imbalanced
0.0000000000	difficulties
0.0000000000	notable
0.0000000000	developers
0.0000000000	overall
0.0000000000	since
0.0000000000	recommendations
0.0000000000	practical
0.0000000000	adjusted
0.0000000000	auc
0.0000000000	roc
0.0000000000	curve
0.0000000000	similarities
0.0000000000	fundamental
0.0000000000	receiver
0.0000000000	links
0.0000000000	revealing
0.0000000000	under
0.0000000000	helps
0.0000000000	area
0.0000000000	metric
0.0000000000	meaningful
0.0000000000	probabilities
0.0000000000	sorted
0.0000000000	prior
0.0000000000	compensates
0.0000000000	thresholding
0.0000000000	overview
0.0000000000	phase
0.0000000000	instead
0.0000000000	undersampling
0.0000000000	oversampling
0.0000000000	listed
0.0000000000	details
0.0000000000	procedures
0.0000000000	effects
0.0000000000	terms
0.0000000000	imagenet
0.0000000000	affect
0.0000000000	distinguish
0.0000000000	mnist
0.0000000000	complexity
0.0000000000	increasing
0.0000000000	categorize
0.0000000000	unifying
0.0000000000	available
0.0000000000	limited
0.0000000000	definitions
0.0000000000	classical
0.0000000000	comprehensively
0.0000000000	ingredients
0.0000000000	issue
0.0000000000	compare
0.0000000000	cnns
0.0000000000	impact
0.0000000000	systematically
0.0000000000	taxonomy
0.0000000000	validated
0.0000000000	theoretical
0.0000000000	semi
0.0000000000	extension
0.0000000000	stabilizes
0.0000000000	family
0.0000000000	broad
0.0000000000	imbalance
0.0000000000	unify
0.0000000000	class
0.0000000000	systematic
0.0000000000	conditional
0.0000000000	self
0.0000000000	contemporary
0.0000000000	issues
0.0000000000	identifiability
0.0000000000	back
0.0000000000	projecting
0.0000000000	inverse
0.0000000000	means
0.0000000000	no
0.0000000000	form
0.0000000000	auxiliary
0.0000000000	useful
0.0000000000	serve
0.0000000000	intuitively
0.0000000000	variation
0.0000000000	generators
0.0000000000	matching
0.0000000000	compelling
0.0000000000	empirically
0.0000000000	alice
0.0000000000	arbitrarily
0.0000000000	distributions
0.0000000000	mapping
0.0000000000	gans
0.0000000000	matched
0.0000000000	convincing
0.0000000000	ability
0.0000000000	verification
0.0000000000	face
0.0000000000	shelf
0.0000000000	off
0.0000000000	judges
0.0000000000	facilitate
0.0000000000	discriminators
0.0000000000	siamese
0.0000000000	began
0.0000000000	dcgan
0.0000000000	augment
0.0000000000	depict
0.0000000000	photorealistic
0.0000000000	must
0.0000000000	discriminator
0.0000000000	distinct
0.0000000000	consist
0.0000000000	generator
0.0000000000	sample
0.0000000000	pairwise
0.0000000000	pose
0.0000000000	lighting
0.0000000000	aspects
0.0000000000	contingent
0.0000000000	maintaining
0.0000000000	bounds
0.0000000000	subjects
0.0000000000	regret
0.0000000000	logarithmic
0.0000000000	manifold
0.0000000000	adagrad
0.0000000000	traverse
0.0000000000	rmsprop
0.0000000000	variants
0.0000000000	subject
0.0000000000	pyramidal
0.0000000000	portion
0.0000000000	identity
0.0000000000	fixing
0.0000000000	attacks
0.0000000000	proposes
0.0000000000	photographs
0.0000000000	specific
0.0000000000	observations
0.0000000000	focused
0.0000000000	individual
0.0000000000	larger
0.0000000000	identities
0.0000000000	layer
0.0000000000	codes
0.0000000000	majority
0.0000000000	agnostic
0.0000000000	algorithm
0.0000000000	activation
0.0000000000	analytic
0.0000000000	squared
0.0000000000	exist
0.0000000000	connected
0.0000000000	severely
0.0000000000	fully
0.0000000000	imperceptible
0.0000000000	quasi
0.0000000000	fool
0.0000000000	true
0.0000000000	generated
0.0000000000	almost
0.0000000000	added
0.0000000000	denote
0.0000000000	globally
0.0000000000	close
0.0000000000	minima
0.0000000000	vulnerable
0.0000000000	was
0.0000000000	argued
0.0000000000	perceptual
0.0000000000	successful
0.0000000000	points
0.0000000000	remarkably
0.0000000000	suboptimal
0.0000000000	stuck
0.0000000000	getting
0.0000000000	seems
0.0000000000	observed
0.0000000000	frequently
0.0000000000	convex
0.0000000000	highly
0.0000000000	spaces
0.0000000000	decomposing
0.0000000000	semantically
0.0000000000	wide
0.0000000000	surface
0.0000000000	comparison
0.0000000000	120
0.0000000000	dogs
0.0000000000	stanford
0.0000000000	benefit
0.0000000000	102
0.0000000000	flowers
0.0000000000	showing
0.0000000000	oxford
0.0000000000	67
0.0000000000	semantic
0.0000000000	indoor
0.0000000000	against
0.0000000000	mit
0.0000000000	perturbations
0.0000000000	256
0.0000000000	caltech
0.0000000000	creating
0.0000000000	include
0.0000000000	universal
0.0000000000	step
0.0000000000	takes
0.0000000000	thus
0.0000000000	often
0.0000000000	appear
0.0000000000	labels
0.0000000000	relatively
0.0000000000	categories
0.0000000000	supports
0.0000000000	multitask
0.0000000000	nearly
0.0000000000	inputs
0.0000000000	desired
0.0000000000	greater
0.0000000000	certain
0.0000000000	embeddings
0.0000000000	moreover
0.0000000000	region
0.0000000000	nonstationary
0.0000000000	presence
0.0000000000	bank
0.0000000000	forcing
0.0000000000	filter
0.0000000000	2009
0.0000000000	nonlinear
0.0000000000	descriptors
0.0000000000	compute
0.0000000000	size
0.0000000000	shared
0.0000000000	fixed
0.0000000000	tune
0.0000000000	jointly
0.0000000000	outperform
0.0000000000	considerably
0.0000000000	those
0.0000000000	similar
0.0000000000	synthetic
0.0000000000	original
0.0000000000	life
0.0000000000	investigate
0.0000000000	subset
0.0000000000	identify
0.0000000000	idea
0.0000000000	core
0.0000000000	applied
0.0000000000	introducing
0.0000000000	time
0.0000000000	facilitated
0.0000000000	connectivity
0.0000000000	does
0.0000000000	unit
0.0000000000	updates
0.0000000000	abundant
0.0000000000	iterates
0.0000000000	another
0.0000000000	minimization
0.0000000000	simultaneously
0.0000000000	alternating
0.0000000000	carried
0.0000000000	iteration
0.0000000000	optimization
0.0000000000	descent
0.0000000000	coordinate
0.0000000000	block
0.0000000000	group
0.0000000000	l2
0.0000000000	l1
0.0000000000	imposing
0.0000000000	death
0.0000000000	improving
0.0000000000	scheme
0.0000000000	rate
0.0000000000	increase
0.0000000000	causing
0.0000000000	infeasible
0.0000000000	determined
0.0000000000	might
0.0000000000	so
0.0000000000	number
0.0000000000	labeling
0.0000000000	collecting
0.0000000000	weights
0.0000000000	initial
0.0000000000	random
0.0000000000	during
0.0000000000	labeled
0.0000000000	implemented
0.0000000000	birth
0.0000000000	neuronal
0.0000000000	batches
0.0000000000	sequentially
0.0000000000	arrive
0.0000000000	instances
0.0000000000	setting
0.0000000000	improved
0.0000000000	associated
0.0000000000	hippocampus
0.0000000000	phenomenon
0.0000000000	adult
0.0000000000	inductive
0.0000000000	elements
0.0000000000	hidden
0.0000000000	aligned
0.0000000000	deletion
0.0000000000	addition
0.0000000000	continuous
0.0000000000	may
0.0000000000	stationary
0.0000000000	linear
0.0000000000	assertions
0.0000000000	made
0.0000000000	focus
0.0000000000	desirability
0.0000000000	feasibility
0.0000000000	throughout
0.0000000000	explanations
0.0000000000	hoc
0.0000000000	transparency
0.0000000000	identifying
0.0000000000	thought
0.0000000000	techniques
0.0000000000	properties
0.0000000000	occasionally
0.0000000000	them
0.0000000000	finding
0.0000000000	underlying
0.0000000000	examine
0.0000000000	refine
0.0000000000	seek
0.0000000000	absent
0.0000000000	ambiguity
0.0000000000	render
0.0000000000	attributes
0.0000000000	notions
0.0000000000	myriad
0.0000000000	offer
0.0000000000	motivations
0.0000000000	overlapping
0.0000000000	non
0.0000000000	sometimes
0.0000000000	diverse
0.0000000000	papers
0.0000000000	underspecified
0.0000000000	interpretation
0.0000000000	want
0.0000000000	tell
0.0000000000	else
0.0000000000	deployment
0.0000000000	your
0.0000000000	tuning
0.0000000000	trust
0.0000000000	you
0.0000000000	fine
0.0000000000	selective
0.0000000000	capabilities
0.0000000000	remarkable
0.0000000000	borrowing
0.0000000000	evaluate
0.0000000000	leads
0.0000000000	adding
0.0000000000	second
0.0000000000	twofold
0.0000000000	contributions
0.0000000000	main
0.0000000000	bidirectional
0.0000000000	incorporating
0.0000000000	changing
0.0000000000	adaption
0.0000000000	online
0.0000000000	discriminative
0.0000000000	dictionary
0.0000000000	information
0.0000000000	aspect
0.0000000000	account
0.0000000000	take
0.0000000000	strategy
0.0000000000	make
0.0000000000	needed
0.0000000000	tricks
0.0000000000	suggests
0.0000000000	behind
0.0000000000	justification
0.0000000000	statistical
0.0000000000	research
0.0000000000	detail
0.0000000000	numerous
0.0000000000	great
0.0000000000	remain
0.0000000000	capturing
0.0000000000	rates
0.0000000000	interpretability
0.0000000000	captioning
0.0000000000	translation
0.0000000000	latest
0.0000000000	power
0.0000000000	demonstrated
0.0000000000	studies
0.0000000000	making
0.0000000000	agglutinative
0.0000000000	glyph
0.0000000000	chain
0.0000000000	markov
0.0000000000	degree
0.0000000000	third
0.0000000000	modelled
0.0000000000	module
0.0000000000	morphology
0.0000000000	mathematical
0.0000000000	lines
0.0000000000	extracts
0.0000000000	characters
0.0000000000	classifies
0.0000000000	character
0.0000000000	optical
0.0000000000	address
0.0000000000	adversarial
0.0000000000	ocr
0.0000000000	telugu
0.0000000000	context
0.0000000000	represents
0.0000000000	gesture
0.0000000000	sets
0.0000000000	convolutions
0.0000000000	scarce
0.0000000000	recurrence
0.0000000000	pooling
0.0000000000	benchmark
0.0000000000	especially
0.0000000000	settings
0.0000000000	multiple
0.0000000000	pretraining
0.0000000000	encoder
0.0000000000	auto
0.0000000000	denoising
0.0000000000	preceded
0.0000000000	detection
0.0000000000	revenge
0.0000000000	case
0.0000000000	s
0.0000000000	montezuma
0.0000000000	particular
0.0000000000	game
0.0000000000	atari
0.0000000000	classic
0.0000000000	pixels
0.0000000000	2
0.0000000000	raw
0.0000000000	decision
0.0000000000	indeed
0.0000000000	literature
0.0000000000	surf
0.0000000000	complex
0.0000000000	studied
0.0000000000	delayed
0.0000000000	designed
0.0000000000	very
0.0000000000	good
0.0000000000	cleverly
0.0000000000	provide
0.0000000000	tool
0.0000000000	strength
0.0000000000	straightforward
0.0000000000	complicated
0.0000000000	space
0.0000000000	target
0.0000000000	key
0.0000000000	source
0.0000000000	entities
0.0000000000	plays
0.0000000000	mismatch
0.0000000000	evidence
0.0000000000	distribution
0.0000000000	extensive
0.0000000000	specifications
0.0000000000	reduce
0.0000000000	supervised
0.0000000000	regularization
0.0000000000	segment
0.0000000000	measure
0.0000000000	satisfy
0.0000000000	mmd
0.0000000000	actions
0.0000000000	discrepancy
0.0000000000	atomic
0.0000000000	mean
0.0000000000	truth
0.0000000000	maximum
0.0000000000	pseudo
0.0000000000	lower
0.0000000000	segments
0.0000000000	obtain
0.0000000000	videos
0.0000000000	problem
0.0000000000	segmentation
0.0000000000	function
0.0000000000	deal
0.0000000000	top
0.0000000000	effective
0.0000000000	scales
0.0000000000	cues
0.0000000000	grouping
0.0000000000	operating
0.0000000000	motion
0.0000000000	low
0.0000000000	whether
0.0000000000	h
0.0000000000	dqn
0.0000000000	inspired
0.0000000000	environment
0.0000000000	unsupervised
0.0000000000	posed
0.0000000000	yet
0.0000000000	presents
0.0000000000	help
0.0000000000	eventually
0.0000000000	could
0.0000000000	behaviors
0.0000000000	solve
0.0000000000	directly
0.0000000000	sake
0.0000000000	own
0.0000000000	explore
0.0000000000	intrinsically
0.0000000000	functions
0.0000000000	value
0.0000000000	unable
0.0000000000	being
0.0000000000	agent
0.0000000000	resulting
0.0000000000	exploration
0.0000000000	insufficient
0.0000000000	arises
0.0000000000	difficulty
0.0000000000	primary
0.0000000000	adaptive
0.0000000000	sparse
0.0000000000	environments
0.0000000000	behavior
0.0000000000	directed
0.0000000000	goal
0.0000000000	technologies
0.0000000000	web
0.0000000000	android
0.0000000000	ios
0.0000000000	i.e
0.0000000000	platforms
0.0000000000	77
0.0000000000	input
0.0000000000	automatically
0.0000000000	move
0.0000000000	objects
0.0000000000	watching
0.0000000000	train
0.0000000000	leveraged
0.0000000000	treatment
0.0000000000	differences
0.0000000000	relationship
0.0000000000	discuss
0.0000000000	recommender
0.0000000000	reviews
0.0000000000	introduction
0.0000000000	provides
0.0000000000	enhance
0.0000000000	process
0.0000000000	feedback
0.0000000000	return
0.0000000000	boost
0.0000000000	motivation
0.0000000000	intrinsic
0.0000000000	call
0.0000000000	abstraction
0.0000000000	temporal
0.0000000000	integrating
0.0000000000	principled
0.0000000000	hierarchical
0.0000000000	integrate
0.0000000000	tightly
0.0000000000	desirable
0.0000000000	naturally
0.0000000000	involves
0.0000000000	integrated
0.0000000000	flexible
0.0000000000	powerful
0.0000000000	structured
0.0000000000	still
0.0000000000	nature
0.0000000000	strengths
0.0000000000	probabilistic
0.0000000000	combine
0.0000000000	goals
0.0000000000	routes
0.0000000000	challenges
0.0000000000	concrete
0.0000000000	suggest
0.0000000000	situations
0.0000000000	major
0.0000000000	seen
0.0000000000	years
0.0000000000	few
0.0000000000	generalize
0.0000000000	past
0.0000000000	acquire
0.0000000000	rapidly
0.0000000000	require
0.0000000000	compositionality
0.0000000000	planning
0.0000000000	harness
0.0000000000	c
0.0000000000	inference
0.0000000000	involve
0.0000000000	enrich
0.0000000000	role
0.0000000000	psychology
0.0000000000	important
0.0000000000	physics
0.0000000000	play
0.0000000000	theories
0.0000000000	intuitive
0.0000000000	ground
0.0000000000	perception
0.0000000000	merely
0.0000000000	rather
0.0000000000	explanation
0.0000000000	causal
0.0000000000	should
0.0000000000	specifically
0.0000000000	trends
0.0000000000	engineering
0.0000000000	beyond
0.0000000000	reach
0.0000000000	thinking
0.0000000000	truly
0.0000000000	suggesting
0.0000000000	science
0.0000000000	cognitive
0.0000000000	review
0.0000000000	crucial
0.0000000000	differ
0.0000000000	achievements
0.0000000000	inspiration
0.0000000000	biological
0.0000000000	despite
0.0000000000	respects
0.0000000000	some
0.0000000000	beats
0.0000000000	even
0.0000000000	equals
0.0000000000	board
0.0000000000	games
0.0000000000	video
0.0000000000	object
0.0000000000	end
0.0000000000	come
0.0000000000	advances
0.0000000000	interest
0.0000000000	renewed
0.0000000000	ai
0.0000000000	intelligence
0.0000000000	progress
0.0000000000	survey
0.0000000000	bayesian
0.0000000000	whose
0.0000000000	2018
0.0000000000	al
0.0000000000	et
0.0000000000	par
0.0000000000	designs
0.0000000000	10
0.0000000000	cifar
0.0000000000	post
0.0000000000	without
0.0000000000	establishing
0.0000000000	novel
0.0000000000	discovers
0.0000000000	treebank
0.0000000000	penn
0.0000000000	expensive
0.0000000000	less
0.0000000000	notably
0.0000000000	hours
0.0000000000	gpu
0.0000000000	fewer
0.0000000000	much
0.0000000000	performances
0.0000000000	empirical
0.0000000000	strong
0.0000000000	delivers
0.0000000000	child
0.0000000000	thanks
0.0000000000	loss
0.0000000000	cross
0.0000000000	canonical
0.0000000000	minimize
0.0000000000	selected
0.0000000000	people
0.0000000000	like
0.0000000000	think
0.0000000000	corresponding
0.0000000000	meanwhile
0.0000000000	machines
0.0000000000	set
0.0000000000	building
0.0000000000	validation
0.0000000000	reward
0.0000000000	expected
0.0000000000	maximizes
0.0000000000	gradient
0.0000000000	policy
0.0000000000	improvement
0.0000000000	graph
0.0000000000	computational
0.0000000000	further
0.0000000000	large
0.0000000000	subgraph
0.0000000000	optimal
0.0000000000	various
0.0000000000	searching
0.0000000000	introduced
0.0000000000	keras
0.0000000000	discover
0.0000000000	learns
0.0000000000	frameworks
0.0000000000	controller
0.0000000000	be
0.0000000000	design
0.0000000000	reader
0.0000000000	inexpensive
0.0000000000	reading
0.0000000000	after
0.0000000000	fast
0.0000000000	hope
0.0000000000	representation
0.0000000000	cnn
0.0000000000	frame
0.0000000000	full
0.0000000000	global
0.0000000000	lstm
0.0000000000	combination
0.0000000000	use
0.0000000000	best
0.0000000000	among
0.0000000000	fact
0.0000000000	competitive
0.0000000000	here
0.0000000000	bit
0.0000000000	mostly
0.0000000000	base
0.0000000000	emerged
0.0000000000	applications
0.0000000000	mobile
0.0000000000	websites
0.0000000000	answer
0.0000000000	software
0.0000000000	architectures
0.0000000000	customized
0.0000000000	holistic
0.0000000000	build
0.0000000000	understanding
0.0000000000	order
0.0000000000	developer
0.0000000000	vision
0.0000000000	conducted
0.0000000000	accurate
0.0000000000	typical
0.0000000000	development
0.0000000000	computer
0.0000000000	designer
0.0000000000	together
0.0000000000	created
0.0000000000	interface
0.0000000000	graphical
0.0000000000	transforming
0.0000000000	via
0.0000000000	search
0.0000000000	efficient
0.0000000000	test
0.0000000000	48
0.0000000000	2011
0.0000000000	nist
0.0000000000	condition
0.0000000000	out
0.0000000000	eer
0.0000000000	reduction
0.0000000000	55
0.0000000000	challenge
0.0000000000	adaptation
0.0000000000	2013
0.0000000000	yield
0.0000000000	dnn
0.0000000000	possible
0.0000000000	these
0.0000000000	how
0.0000000000	significant
0.0000000000	produce
0.0000000000	separately
0.0000000000	used
0.0000000000	dnns
0.0000000000	posteriors
0.0000000000	phoneme
0.0000000000	sub
0.0000000000	representations
0.0000000000	learned
0.0000000000	recognition
0.0000000000	speaker
0.0000000000	unified
0.0000000000	practice
0.0000000000	robust
0.0000000000	noise
0.0000000000	fit
0.0000000000	easily
0.0000000000	while
0.0000000000	parameter
0.0000000000	findings
0.0000000000	confirming
0.0000000000	gains
0.0000000000	predictive
0.0000000000	entropy
0.0000000000	label
0.0000000000	common
0.0000000000	reductions
0.0000000000	error
0.0000000000	average
0.0000000000	15
0.0000000000	up
0.0000000000	methods
0.0000000000	achieve
0.0000000000	known
0.0000000000	5.0
0.0000000000	respect
0.0000000000	using
0.0000000000	seven
0.0000000000	superiority
0.0000000000	across
0.0000000000	demonstrates
0.0000000000	pairs
0.0000000000	perform
0.0000000000	well
0.0000000000	connections
0.0000000000	round
0.0000000000	skip
0.0000000000	subspaces
0.0000000000	angular
0.0000000000	combinations
0.0000000000	old
0.0000000000	all
0.0000000000	historical
0.0000000000	enabling
0.0000000000	databases
0.0000000000	oriented
0.0000000000	proposals
0.0000000000	custom
0.0000000000	previous
0.0000000000	generalizes
0.0000000000	experimentation
0.0000000000	same
0.0000000000	amount
0.0000000000	control
0.0000000000	written
0.0000000000	trainable
0.0000000000	groups
0.0000000000	employed
0.0000000000	approach
0.0000000000	modified
0.0000000000	content
0.0000000000	agents
0.0000000000	conversational
0.0000000000	representing
0.0000000000	vectors
0.0000000000	open
0.0000000000	feature
0.0000000000	defines
0.0000000000	developing
0.0000000000	path
0.0000000000	fruitful
0.0000000000	pattern
0.0000000000	binary
0.0000000000	local
0.0000000000	statistics
0.0000000000	length
0.0000000000	run
0.0000000000	analysis
0.0000000000	coupling
0.0000000000	potential
0.0000000000	highlight
0.0000000000	texture
0.0000000000	d
0.0000000000	1
0.0000000000	determines
0.0000000000	accordingly
0.0000000000	gray
0.0000000000	considered
0.0000000000	code
0.0000000000	each
0.0000000000	characteristics
0.0000000000	their
0.0000000000	line
0.0000000000	letters
0.0000000000	position
0.0000000000	derived
0.0000000000	values
0.0000000000	numerical
0.0000000000	coded
0.0000000000	uniformly
0.0000000000	images
0.0000000000	mapped
0.0000000000	questions
0.0000000000	scripts
0.0000000000	tutorial
0.0000000000	given
0.0000000000	documents
0.0000000000	method
0.0000000000	introduces
0.0000000000	paper
0.0000000000	discrimination
0.0000000000	script
0.0000000000	clustering
0.0000000000	coding
0.0000000000	analogies
0.0000000000	similarity
0.0000000000	interpretable
0.0000000000	captures
0.0000000000	rise
0.0000000000	gives
0.0000000000	furthermore
0.0000000000	version
0.0000000000	outputs
0.0000000000	quality
0.0000000000	higher
0.0000000000	generates
0.0000000000	edit
0.0000000000	vector
0.0000000000	sampling
0.0000000000	additional
0.0000000000	right
0.0000000000	improve
0.0000000000	left
0.0000000000	likely
0.0000000000	either
0.0000000000	scratch
0.0000000000	machine
0.0000000000	traditional
0.0000000000	compared
0.0000000000	due
0.0000000000	into
0.0000000000	than
0.0000000000	edits
0.0000000000	significantly
0.0000000000	then
0.0000000000	performed
0.0000000000	corpus
0.0000000000	where
0.0000000000	users
0.0000000000	sentence
0.0000000000	prototype
0.0000000000	testing
0.0000000000	b
0.0000000000	samples
0.0000000000	evaluated
0.0000000000	generative
0.0000000000	its
0.0000000000	appropriate
0.0000000000	select
0.0000000000	trained
0.0000000000	been
0.0000000000	has
0.0000000000	interactions
0.0000000000	user
0.0000000000	world
0.0000000000	real
0.0000000000	data
0.0000000000	crowdsourced
0.0000000000	applying
0.0000000000	variable
0.0000000000	latent
0.0000000000	words
0.0000000000	bag
0.0000000000	template
0.0000000000	including
0.0000000000	retrieval
0.0000000000	consists
0.0000000000	system
0.0000000000	speech
0.0000000000	through
0.0000000000	topics
0.0000000000	talk
0.0000000000	small
0.0000000000	popular
0.0000000000	capable
0.0000000000	competition
0.0000000000	prize
0.0000000000	alexa
0.0000000000	amazon
0.0000000000	algorithms
0.0000000000	institute
0.0000000000	developed
0.0000000000	chatbot
0.0000000000	prototypes
0.0000000000	reinforcement
0.0000000000	editing
0.0000000000	generating
0.0000000000	structure
0.0000000000	term
0.0000000000	long
0.0000000000	able
0.0000000000	better
0.0000000000	sparsity
0.0000000000	overcoming
0.0000000000	at
0.0000000000	adept
0.0000000000	demonstrate
0.0000000000	experiments
0.0000000000	finally
0.0000000000	responses
0.0000000000	topic
0.0000000000	relevant
0.0000000000	more
0.0000000000	appears
0.0000000000	study
0.0000000000	human
0.0000000000	metrics
0.0000000000	evaluation
0.0000000000	automatic
0.0000000000	general
0.0000000000	according
0.0000000000	overcome
0.0000000000	achieving
0.0000000000	only
0.0000000000	substantial
0.0000000000	particularly
0.0000000000	competing
0.0000000000	improvements
0.0000000000	lead
0.0000000000	will
0.0000000000	if
0.0000000000	predict
0.0000000000	conversations
0.0000000000	twitter
0.0000000000	hard
0.0000000000	domain
0.0000000000	it
0.0000000000	support
0.0000000000	nlp
0.0000000000	technical
0.0000000000	processing
0.0000000000	ubuntu
0.0000000000	domains
0.0000000000	challenging
0.0000000000	knowledge
0.0000000000	transfer
0.0000000000	decide
0.0000000000	apply
0.0000000000	parameters
0.0000000000	abstractions
0.0000000000	sharing
0.0000000000	modeling
0.0000000000	towards
0.0000000000	from
0.0000000000	profit
0.0000000000	biases
0.0000000000	can
0.0000000000	deep
0.0000000000	similarly
0.0000000000	optimizing
0.0000000000	perplexity
0.0000000000	ones
0.0000000000	word
0.0000000000	new
0.0000000000	solving
0.0000000000	problems
0.0000000000	w.r.t
0.0000000000	objective
0.0000000000	about
0.0000000000	know
0.0000000000	they
0.0000000000	standard
0.0000000000	bear
0.0000000000	bring
0.0000000000	contrast
0.0000000000	humans
0.0000000000	observation
0.0000000000	over
0.0000000000	motivated
0.0000000000	likelihood
0.0000000000	log
0.0000000000	task
0.0000000000	exact
0.0000000000	multi
0.0000000000	maximizing
0.0000000000	by
0.0000000000	training
0.0000000000	allows
0.0000000000	such
0.0000000000	semantics
0.0000000000	discourse
0.0000000000	wealth
0.0000000000	capture
0.0000000000	sufficient
0.0000000000	is
0.0000000000	procedure
0.0000000000	extraction
0.0000000000	simple
0.0000000000	argue
0.0000000000	but
0.0000000000	learn
0.0000000000	estimate
0.0000000000	ways
0.0000000000	are
0.0000000000	there
0.0000000000	tokens
0.0000000000	coarse
0.0000000000	level
0.0000000000	high
0.0000000000	processes
0.0000000000	stochastic
0.0000000000	discrete
0.0000000000	parallel
0.0000000000	two
0.0000000000	as
0.0000000000	language
0.0000000000	natural
0.0000000000	framework
0.0000000000	sequence
0.0000000000	extends
0.0000000000	network
0.0000000000	introduce
0.0000000000	answering
0.0000000000	dual
0.0000000000	reasoning
0.0000000000	relational
0.0000000000	requiring
0.0000000000	performance
0.0000000000	improves
0.0000000000	mechanism
0.0000000000	cases
0.0000000000	both
0.0000000000	accuracy
0.0000000000	increased
0.0000000000	show
0.0000000000	implementation
0.0000000000	models
0.0000000000	other
0.0000000000	mechanisms
0.0000000000	replacing
0.0000000000	experiment
0.0000000000	also
0.0000000000	ensemble
0.0000000000	current
0.0000000000	margin
0.0000000000	within
0.0000000000	performs
0.0000000000	dataset
0.0000000000	1.0
0.0000000000	winner
0.0000000000	place
0.0000000000	first
0.0000000000	outperforms
0.0000000000	single
0.0000000000	question
0.0000000000	image
0.0000000000	parts
0.0000000000	several
0.0000000000	tasks
0.0000000000	related
0.0000000000	relations
0.0000000000	reason
0.0000000000	loosely
0.0000000000	enables
0.0000000000	between
0.0000000000	share
0.0000000000	features
0.0000000000	what
0.0000000000	learning
0.0000000000	embedding
0.0000000000	joint
0.0000000000	rich
0.0000000000	offers
0.0000000000	units
0.0000000000	proposed
0.0000000000	characteristic
0.0000000000	memory
0.0000000000	attention
0.0000000000	textual
0.0000000000	prediction
0.0000000000	visual
0.0000000000	act
0.0000000000	generate
0.0000000000	layers
0.0000000000	datasets
0.0000000000	different
0.0000000000	utilizes
0.0000000000	three
0.0000000000	which
0.0000000000	vqa
0.0000000000	art
0.0000000000	architecture
0.0000000000	of
0.0000000000	propose
0.0000000000	state
0.0000000000	achieves
0.0000000000	our
0.0000000000	incorporates
0.0000000000	that
0.0000000000	model
0.0000000000	present
0.0000000000	we
0.0000000000	work
0.0000000000	this
0.0000000000	one
0.0000000000	subsequent
0.0000000000	classifying
0.0000000000	when
0.0000000000	preceding
0.0000000000	the
0.0000000000	leverage
0.0000000000	not
0.0000000000	do
0.0000000000	systems
0.0000000000	ann
0.0000000000	existing
0.0000000000	most
0.0000000000	dialog
0.0000000000	utterances
0.0000000000	or
0.0000000000	document
0.0000000000	a
0.0000000000	sentences
0.0000000000	e.g
0.0000000000	sequences
0.0000000000	in
0.0000000000	occur
0.0000000000	texts
0.0000000000	many
0.0000000000	however
0.0000000000	for
0.0000000000	results
0.0000000000	promising
0.0000000000	shown
0.0000000000	have
0.0000000000	anns
0.0000000000	artificial
0.0000000000	on
0.0000000000	based
0.0000000000	approaches
0.0000000000	recent
0.0000000000	generation
0.0000000000	response
0.0000000000	dialogue
0.0000000000	to
0.0000000000	application
0.0000000000	an
0.0000000000	multiresolution
0.0000000000	networks
0.0000000000	neural
0.0000000000	convolutional
0.0000000000	and
0.0000000000	recurrent
0.0000000000	with
0.0000000000	classification
0.0000000000	text
0.0000000000	short
0.0000000000	sequential
